@relation dataset_B-weka.filters.unsupervised.attribute.Remove-R1-3

@attribute NOM numeric
@attribute FanOut numeric
@attribute CyclomaticComplexity numeric
@attribute LOCTouched numeric
@attribute NFix numeric
@attribute NAuth numeric
@attribute LOCAdded numeric
@attribute MaxLOCAdded numeric
@attribute Churn numeric
@attribute MaxChurn numeric
@attribute NS numeric
@attribute ND numeric
@attribute ChangeSetSize numeric
@attribute Age numeric
@attribute NSmells numeric
@attribute Bugginess {No,Yes}

@data
6,0,18,364,0,3,311,275,258,275,35,333,2613,237,0,No
5,0,17,254,0,3,216,187,178,187,35,333,2613,237,0,No
0,0,0,144,0,4,88,21,32,21,59,403,2750,383,0,No
5,1,6,287,0,3,172,35,57,35,63,397,2490,822,0,No
25,1,52,342,0,3,276,147,210,147,44,369,2671,669,0,No
0,0,0,134,0,3,84,15,34,14,42,355,2409,783,0,No
8,0,8,240,0,4,153,35,66,35,59,374,2387,822,0,No
29,0,39,751,0,3,482,104,213,104,94,585,3245,789,0,No
18,1,24,225,0,3,188,147,151,147,41,347,2665,285,0,No
1,0,1,129,0,3,83,16,37,14,40,347,2401,783,0,No
15,1,17,277,0,4,192,35,107,35,63,451,2859,822,0,No
7,1,8,244,0,3,155,35,66,35,66,478,2910,822,0,No
2,0,3,69,0,1,69,69,69,69,8,85,782,109,0,No
3,0,6,613,0,3,356,67,99,67,124,843,3740,767,0,No
1,1,8,391,0,3,237,69,83,69,46,410,2951,646,0,No
6,2,11,173,0,3,142,93,111,93,38,353,2724,542,0,No
1,7,3,146,0,3,106,59,66,59,42,381,2846,452,0,No
7,0,12,114,0,3,93,50,72,50,39,343,2710,382,0,No
8,2,28,375,0,1,279,226,183,226,19,165,1300,164,0,No
2,6,7,601,0,3,360,167,119,167,70,505,3259,382,0,No
2,3,2,104,0,3,77,47,50,47,37,347,2759,452,0,No
3,5,11,565,0,3,342,121,119,121,61,457,3290,758,0,No
10,5,18,1155,0,3,733,251,311,223,81,560,3407,731,0,No
0,2,0,114,0,4,81,25,48,25,34,291,2295,781,0,No
2,5,2,2492,0,3,1294,413,96,413,76,541,3406,731,0,No
2,5,5,4661,0,3,2391,437,121,413,107,670,3800,731,0,No
3,5,11,260,0,3,187,106,114,106,47,397,2960,452,0,No
10,13,22,869,0,4,566,309,263,309,61,483,3151,339,0,No
7,10,11,543,0,4,389,270,235,270,37,345,2734,177,0,No
5,5,15,469,0,3,332,217,195,217,45,412,2910,291,0,No
1,5,1,238,0,3,174,135,110,135,38,360,2765,268,0,No
6,6,11,412,0,3,303,217,194,217,43,408,2880,291,0,No
0,0,0,444,0,4,239,42,34,35,65,435,2846,822,0,No
11,6,21,703,0,5,452,93,201,93,92,565,3288,758,0,No
0,0,0,127,0,3,79,15,31,14,40,355,2422,783,0,No
1,1,10,181,0,3,137,86,93,86,37,350,2713,269,0,No
1,0,1,273,0,3,158,35,43,35,63,447,2772,822,0,No
5,0,16,332,0,4,213,56,94,56,50,425,2998,731,0,No
5,0,5,429,0,3,254,64,79,64,61,479,3190,731,0,No
6,1,32,429,0,5,284,201,139,201,45,379,2800,339,0,No
19,0,35,348,0,3,281,213,214,213,49,398,2867,339,0,No
9,0,30,210,0,1,206,203,202,203,17,161,1304,152,0,No
4,4,5,177,0,3,142,106,107,106,31,320,2610,268,0,No
1,1,4,170,0,4,118,54,66,54,42,380,2716,296,0,No
6,21,25,579,0,4,427,208,275,208,52,441,2849,272,0,Yes
9,1,18,419,0,3,277,35,135,35,97,594,3235,822,0,No
9,1,9,204,0,3,138,61,72,61,53,418,2611,779,0,No
7,1,7,212,0,3,135,61,58,61,52,442,2952,779,0,No
19,3,25,957,0,3,570,82,183,82,133,830,3749,787,0,No
39,6,49,1260,0,4,808,132,356,132,182,1179,4425,767,0,No
13,2,27,277,0,3,211,137,145,137,43,375,2752,177,0,No
17,4,18,368,0,4,260,121,152,121,84,566,3243,383,0,No
24,7,30,460,0,4,334,148,208,148,76,608,3244,746,0,No
53,9,96,1717,0,5,1145,144,573,144,173,1170,4411,776,0,No
12,5,12,235,0,3,144,35,53,35,70,530,3174,822,0,No
5,3,9,281,0,3,178,58,75,58,64,518,3179,811,0,No
8,12,19,768,0,3,469,96,170,96,108,810,3648,767,0,No
14,8,26,858,0,3,529,77,200,77,100,741,3617,811,0,No
0,0,0,453,0,3,242,42,31,35,65,431,2825,822,0,No
2,2,7,128,0,3,96,63,64,63,33,327,2606,279,0,No
2,4,12,197,0,4,136,63,75,63,45,400,2777,331,0,No
2,3,9,158,0,5,122,65,86,65,40,368,2699,377,0,No
4,13,19,367,0,4,273,196,179,196,43,403,2776,289,0,No
2,4,8,143,0,3,111,85,79,85,32,334,2651,289,0,No
1,9,25,257,0,4,196,139,135,139,39,390,2791,282,0,No
1,2,1,208,0,3,122,85,36,85,41,395,2804,352,0,No
1,1,1,74,0,3,57,38,40,38,32,316,2594,174,0,No
6,10,21,361,0,3,263,69,165,69,52,412,2873,177,0,No
4,4,7,281,0,3,211,90,141,90,55,430,2824,375,0,No
4,10,27,443,0,5,338,241,233,241,43,398,2790,272,0,Yes
2,13,11,453,0,3,330,205,207,205,43,381,2768,177,0,No
0,0,0,193,0,3,117,34,41,34,43,361,2355,383,0,No
3,5,12,195,0,4,152,83,109,83,37,348,2662,251,0,No
13,2,18,207,0,3,169,138,131,138,40,367,2697,275,0,No
5,0,5,121,0,3,98,74,75,74,41,374,2703,758,0,No
3,0,3,85,0,3,67,48,49,48,33,337,2645,521,0,No
6,1,16,170,0,4,133,89,96,89,39,353,2341,521,0,No
2,0,6,115,0,4,82,51,49,51,34,325,2601,206,0,No
15,8,19,657,0,4,423,118,189,118,66,537,3115,307,0,No
17,6,17,451,0,4,333,78,215,78,63,512,3077,307,0,No
1,0,1,84,0,3,56,21,28,21,41,354,2671,383,0,No
1,0,1,84,0,3,56,21,28,21,41,354,2671,383,0,No
10,4,14,152,0,3,133,111,114,111,30,318,2597,284,0,No
16,2,25,177,0,3,164,146,151,146,25,264,2169,284,0,No
20,7,35,253,0,3,229,203,205,203,30,318,2597,284,0,No
6,0,18,0,0,3,0,0,0,0,0,0,0,260,0,No
5,0,17,0,0,3,0,0,0,0,0,0,0,260,0,No
0,0,0,0,0,4,0,0,0,0,0,0,0,406,0,No
5,1,6,0,0,3,0,0,0,0,0,0,0,845,0,No
25,1,52,0,0,3,0,0,0,0,0,0,0,692,0,No
0,0,0,0,0,3,0,0,0,0,0,0,0,806,0,No
8,0,8,0,0,4,0,0,0,0,0,0,0,845,0,No
29,0,39,0,0,3,0,0,0,0,0,0,0,812,0,No
18,1,24,0,0,3,0,0,0,0,0,0,0,308,0,No
1,0,1,0,0,3,0,0,0,0,0,0,0,806,0,No
15,1,17,0,0,4,0,0,0,0,0,0,0,845,0,No
7,1,8,0,0,3,0,0,0,0,0,0,0,845,0,No
2,0,3,0,0,1,0,0,0,0,0,0,0,132,0,No
3,0,6,0,0,3,0,0,0,0,0,0,0,790,0,No
1,1,8,0,0,3,0,0,0,0,0,0,0,669,0,No
6,2,11,0,0,3,0,0,0,0,0,0,0,565,0,No
1,7,3,0,0,3,0,0,0,0,0,0,0,475,0,No
7,0,12,0,0,3,0,0,0,0,0,0,0,405,0,No
8,2,28,0,0,1,0,0,0,0,0,0,0,187,0,No
2,6,7,0,0,3,0,0,0,0,0,0,0,405,0,No
2,3,2,0,0,3,0,0,0,0,0,0,0,475,0,No
3,5,11,0,0,3,0,0,0,0,0,0,0,781,0,No
10,5,18,0,0,3,0,0,0,0,0,0,0,754,0,No
0,2,0,0,0,4,0,0,0,0,0,0,0,804,0,No
2,5,2,0,0,3,0,0,0,0,0,0,0,754,0,No
2,5,5,0,0,3,0,0,0,0,0,0,0,754,0,No
3,5,11,0,0,3,0,0,0,0,0,0,0,475,0,No
10,13,22,0,0,4,0,0,0,0,0,0,0,362,0,No
7,10,11,0,0,4,0,0,0,0,0,0,0,200,0,No
5,5,15,0,0,3,0,0,0,0,0,0,0,314,0,No
1,5,1,0,0,3,0,0,0,0,0,0,0,291,0,No
6,6,11,0,0,3,0,0,0,0,0,0,0,314,0,No
0,0,0,0,0,4,0,0,0,0,0,0,0,845,0,No
11,6,21,0,0,5,0,0,0,0,0,0,0,781,0,No
0,0,0,0,0,3,0,0,0,0,0,0,0,806,0,No
1,1,10,0,0,3,0,0,0,0,0,0,0,292,0,No
1,0,1,0,0,3,0,0,0,0,0,0,0,845,0,No
5,0,16,0,0,4,0,0,0,0,0,0,0,754,0,No
5,0,5,0,0,3,0,0,0,0,0,0,0,754,0,No
6,1,32,0,0,5,0,0,0,0,0,0,0,362,0,No
19,0,35,0,0,3,0,0,0,0,0,0,0,362,0,No
9,0,30,0,0,1,0,0,0,0,0,0,0,175,0,No
4,4,5,0,0,3,0,0,0,0,0,0,0,291,0,No
1,1,4,0,0,4,0,0,0,0,0,0,0,319,0,No
7,21,26,0,0,4,0,0,0,0,0,0,0,295,0,Yes
9,1,18,0,0,3,0,0,0,0,0,0,0,845,0,No
9,1,9,0,0,3,0,0,0,0,0,0,0,802,0,No
7,1,7,0,0,3,0,0,0,0,0,0,0,802,0,No
19,3,25,0,0,3,0,0,0,0,0,0,0,810,0,No
39,6,49,0,0,4,0,0,0,0,0,0,0,790,0,No
13,2,27,0,0,3,0,0,0,0,0,0,0,200,0,No
17,4,18,0,0,4,0,0,0,0,0,0,0,406,0,No
24,7,30,0,0,4,0,0,0,0,0,0,0,769,0,No
53,9,96,0,0,5,0,0,0,0,0,0,0,799,0,No
12,5,12,0,0,3,0,0,0,0,0,0,0,845,0,No
5,3,9,0,0,3,0,0,0,0,0,0,0,834,0,No
8,12,19,0,0,3,0,0,0,0,0,0,0,790,0,No
14,8,26,0,0,3,0,0,0,0,0,0,0,834,0,No
0,0,0,0,0,3,0,0,0,0,0,0,0,845,0,No
2,2,7,0,0,3,0,0,0,0,0,0,0,302,0,No
2,4,12,0,0,4,0,0,0,0,0,0,0,354,0,No
2,3,9,0,0,5,0,0,0,0,0,0,0,400,0,No
4,13,19,0,0,4,0,0,0,0,0,0,0,312,0,No
2,4,8,0,0,3,0,0,0,0,0,0,0,312,0,No
1,9,25,0,0,4,0,0,0,0,0,0,0,305,0,No
1,2,1,0,0,3,0,0,0,0,0,0,0,375,0,No
1,1,1,0,0,3,0,0,0,0,0,0,0,197,0,No
6,10,21,0,0,3,0,0,0,0,0,0,0,200,0,No
4,4,7,0,0,3,0,0,0,0,0,0,0,398,0,No
4,10,27,0,0,5,0,0,0,0,0,0,0,295,0,Yes
2,13,11,0,0,3,0,0,0,0,0,0,0,200,0,No
0,0,0,0,0,3,0,0,0,0,0,0,0,406,0,No
3,5,12,0,0,4,0,0,0,0,0,0,0,274,0,No
13,2,18,0,0,3,0,0,0,0,0,0,0,298,0,No
5,0,5,0,0,3,0,0,0,0,0,0,0,781,0,No
3,0,3,0,0,3,0,0,0,0,0,0,0,544,0,No
6,1,16,0,0,4,0,0,0,0,0,0,0,544,0,No
2,0,6,0,0,4,0,0,0,0,0,0,0,229,0,No
15,8,19,0,0,4,0,0,0,0,0,0,0,330,0,No
17,6,17,0,0,4,0,0,0,0,0,0,0,330,0,No
1,0,1,0,0,3,0,0,0,0,0,0,0,406,0,No
1,0,1,0,0,3,0,0,0,0,0,0,0,406,0,No
10,4,14,0,0,3,0,0,0,0,0,0,0,307,0,No
16,2,25,0,0,3,0,0,0,0,0,0,0,307,0,No
20,7,35,0,0,3,0,0,0,0,0,0,0,307,0,No
6,0,18,0,0,3,0,0,0,0,0,0,0,292,0,No
5,0,17,0,0,3,0,0,0,0,0,0,0,292,0,No
0,0,0,0,0,4,0,0,0,0,0,0,0,438,0,No
5,1,6,0,0,3,0,0,0,0,0,0,0,877,0,No
25,1,52,0,0,3,0,0,0,0,0,0,0,724,0,No
0,0,0,0,0,3,0,0,0,0,0,0,0,838,0,No
8,0,8,2,0,4,1,1,0,0,3,14,30,877,0,No
29,0,39,2,0,4,1,1,0,0,3,14,30,844,0,No
18,1,24,2,0,4,1,1,0,0,3,14,30,340,0,No
1,0,1,0,0,3,0,0,0,0,0,0,0,838,0,No
15,1,17,0,0,4,0,0,0,0,0,0,0,877,0,No
7,1,8,0,0,3,0,0,0,0,0,0,0,877,0,No
2,0,3,0,0,1,0,0,0,0,0,0,0,164,0,No
3,0,6,0,0,3,0,0,0,0,0,0,0,822,0,No
1,1,8,0,0,3,0,0,0,0,0,0,0,701,0,No
6,2,11,0,0,3,0,0,0,0,0,0,0,597,0,No
1,7,3,0,0,3,0,0,0,0,0,0,0,507,0,No
7,0,12,0,0,3,0,0,0,0,0,0,0,437,0,No
8,2,28,0,0,1,0,0,0,0,0,0,0,219,0,No
2,6,7,4,0,4,2,2,0,0,1,2,25,437,0,No
2,3,2,0,0,3,0,0,0,0,0,0,0,507,0,No
3,5,11,2,0,4,1,1,0,0,1,2,25,813,0,No
10,5,18,0,0,3,0,0,0,0,0,0,0,786,0,No
0,2,0,0,0,4,0,0,0,0,0,0,0,836,0,No
2,5,2,2,0,4,1,1,0,0,1,2,25,786,0,No
2,5,5,4,0,4,2,2,0,0,1,2,25,786,0,No
3,5,11,0,0,3,0,0,0,0,0,0,0,507,0,No
10,13,22,6,0,5,3,3,0,0,1,2,25,394,0,No
7,10,11,0,0,4,0,0,0,0,0,0,0,232,0,No
5,5,15,0,0,3,0,0,0,0,0,0,0,346,0,No
1,5,1,2,0,4,1,1,0,0,1,2,25,323,0,No
6,6,11,0,0,3,0,0,0,0,0,0,0,346,0,No
2,5,2,6,0,4,1,1,-4,0,1,2,25,323,0,No
0,0,0,0,0,4,0,0,0,0,0,0,0,877,0,No
11,6,21,0,0,5,0,0,0,0,0,0,0,813,0,No
0,0,0,0,0,3,0,0,0,0,0,0,0,838,0,No
1,1,10,0,0,3,0,0,0,0,0,0,0,324,0,No
1,0,1,0,0,3,0,0,0,0,0,0,0,877,0,No
5,0,16,0,0,4,0,0,0,0,0,0,0,786,0,No
5,0,5,2,0,4,1,1,0,0,3,14,30,786,0,No
6,1,32,0,0,5,0,0,0,0,0,0,0,394,0,No
19,0,35,0,0,3,0,0,0,0,0,0,0,394,0,No
9,0,30,0,0,1,0,0,0,0,0,0,0,207,0,No
4,4,5,0,0,3,0,0,0,0,0,0,0,323,0,No
1,1,4,0,0,4,0,0,0,0,0,0,0,351,0,No
7,21,26,19,1,4,15,15,11,11,2,5,5,327,0,No
9,1,18,4,0,4,2,2,0,0,3,14,30,877,0,No
9,1,9,0,0,3,0,0,0,0,0,0,0,834,0,No
7,1,7,0,0,3,0,0,0,0,0,0,0,834,0,No
19,3,25,0,0,3,0,0,0,0,0,0,0,842,0,No
39,6,49,2,0,5,1,1,0,0,3,14,30,822,0,No
13,2,27,0,0,3,0,0,0,0,0,0,0,232,0,No
17,4,18,0,0,4,0,0,0,0,0,0,0,438,0,No
24,7,30,6,0,5,3,3,0,0,3,14,30,801,0,No
12,5,12,0,0,3,0,0,0,0,0,0,0,877,0,No
5,3,9,0,0,3,0,0,0,0,0,0,0,866,0,No
8,12,19,0,0,3,0,0,0,0,0,0,0,822,0,No
14,8,26,0,0,3,0,0,0,0,0,0,0,866,0,No
0,0,0,0,0,3,0,0,0,0,0,0,0,877,0,No
2,2,7,0,0,3,0,0,0,0,0,0,0,334,0,No
2,4,12,0,0,4,0,0,0,0,0,0,0,386,0,No
2,3,9,0,0,5,0,0,0,0,0,0,0,432,0,No
4,13,24,0,0,4,0,0,0,0,0,0,0,344,0,No
2,4,8,0,0,3,0,0,0,0,0,0,0,344,0,No
1,9,25,0,0,4,0,0,0,0,0,0,0,337,0,No
1,2,1,0,0,3,0,0,0,0,0,0,0,407,0,No
1,7,18,0,0,4,0,0,0,0,0,0,0,407,0,No
1,1,1,0,0,3,0,0,0,0,0,0,0,229,0,No
6,10,21,0,0,3,0,0,0,0,0,0,0,232,0,No
4,4,7,0,0,3,0,0,0,0,0,0,0,430,0,No
4,10,27,78,1,5,40,40,2,2,2,5,5,327,0,Yes
2,13,11,0,0,3,0,0,0,0,0,0,0,232,0,No
0,0,0,0,0,3,0,0,0,0,0,0,0,438,0,No
3,5,12,0,0,4,0,0,0,0,0,0,0,306,0,No
13,2,18,0,0,3,0,0,0,0,0,0,0,330,0,No
5,0,5,0,0,3,0,0,0,0,0,0,0,813,0,No
3,0,3,0,0,3,0,0,0,0,0,0,0,576,0,No
6,1,16,0,0,4,0,0,0,0,0,0,0,576,0,Yes
2,0,6,0,0,4,0,0,0,0,0,0,0,261,0,No
18,8,18,0,0,4,0,0,0,0,0,0,0,362,0,No
1,0,1,0,0,3,0,0,0,0,0,0,0,438,0,No
1,0,1,0,0,3,0,0,0,0,0,0,0,438,0,No
10,4,14,2,0,4,1,1,0,0,3,14,30,339,0,No
16,2,25,2,0,4,1,1,0,0,3,14,30,339,0,No
20,7,35,4,0,4,2,2,0,0,3,14,30,339,0,No
6,0,18,0,0,3,0,0,0,0,0,0,0,294,0,No
5,0,17,0,0,3,0,0,0,0,0,0,0,294,0,No
0,0,0,0,0,4,0,0,0,0,0,0,0,440,0,No
5,1,6,0,0,3,0,0,0,0,0,0,0,879,0,No
25,1,52,0,0,3,0,0,0,0,0,0,0,726,0,No
0,0,0,0,0,3,0,0,0,0,0,0,0,840,0,No
8,0,8,0,0,4,0,0,0,0,0,0,0,879,0,No
29,0,39,0,0,4,0,0,0,0,0,0,0,846,0,No
18,1,24,0,0,4,0,0,0,0,0,0,0,342,0,No
1,0,1,0,0,3,0,0,0,0,0,0,0,840,0,No
15,1,17,0,0,4,0,0,0,0,0,0,0,879,0,No
7,1,8,0,0,3,0,0,0,0,0,0,0,879,0,No
2,0,3,0,0,1,0,0,0,0,0,0,0,166,0,No
3,0,6,0,0,3,0,0,0,0,0,0,0,824,0,No
1,1,8,0,0,3,0,0,0,0,0,0,0,703,0,No
6,2,11,0,0,3,0,0,0,0,0,0,0,599,0,No
1,7,3,0,0,3,0,0,0,0,0,0,0,509,0,No
7,0,12,0,0,3,0,0,0,0,0,0,0,439,0,No
8,2,28,0,0,1,0,0,0,0,0,0,0,221,0,No
2,6,7,0,0,4,0,0,0,0,0,0,0,439,0,No
2,3,2,0,0,3,0,0,0,0,0,0,0,509,0,No
3,5,11,0,0,4,0,0,0,0,0,0,0,815,0,No
10,5,18,0,0,3,0,0,0,0,0,0,0,788,0,No
0,2,0,0,0,4,0,0,0,0,0,0,0,838,0,No
2,5,2,0,0,4,0,0,0,0,0,0,0,788,0,No
2,5,5,0,0,4,0,0,0,0,0,0,0,788,0,No
3,5,11,0,0,3,0,0,0,0,0,0,0,509,0,No
10,13,22,0,0,5,0,0,0,0,0,0,0,396,0,No
7,10,11,0,0,4,0,0,0,0,0,0,0,234,0,No
5,5,15,0,0,3,0,0,0,0,0,0,0,348,0,No
1,5,1,0,0,4,0,0,0,0,0,0,0,325,0,No
6,6,11,0,0,3,0,0,0,0,0,0,0,348,0,No
2,5,2,0,0,4,0,0,0,0,0,0,0,325,0,No
0,0,0,0,0,4,0,0,0,0,0,0,0,879,0,No
11,6,21,0,0,5,0,0,0,0,0,0,0,815,0,No
0,0,0,0,0,3,0,0,0,0,0,0,0,840,0,No
1,1,10,0,0,3,0,0,0,0,0,0,0,326,0,No
1,0,1,0,0,3,0,0,0,0,0,0,0,879,0,No
5,0,16,0,0,4,0,0,0,0,0,0,0,788,0,No
5,0,5,0,0,4,0,0,0,0,0,0,0,788,0,No
6,1,32,0,0,5,0,0,0,0,0,0,0,396,0,No
19,0,35,0,0,3,0,0,0,0,0,0,0,396,0,No
9,0,30,0,0,1,0,0,0,0,0,0,0,209,0,No
4,4,5,0,0,3,0,0,0,0,0,0,0,325,0,No
1,1,4,0,0,4,0,0,0,0,0,0,0,353,0,Yes
7,21,26,0,1,4,0,0,0,0,0,0,0,329,0,No
9,1,18,0,0,4,0,0,0,0,0,0,0,879,0,No
9,1,9,0,0,3,0,0,0,0,0,0,0,836,0,No
7,1,7,0,0,3,0,0,0,0,0,0,0,836,0,No
19,3,25,0,0,3,0,0,0,0,0,0,0,844,0,No
39,6,49,0,0,5,0,0,0,0,0,0,0,824,0,No
13,2,27,0,0,3,0,0,0,0,0,0,0,234,0,No
17,4,18,0,0,4,0,0,0,0,0,0,0,440,0,No
24,7,30,0,0,5,0,0,0,0,0,0,0,803,0,No
53,9,96,0,0,5,0,0,0,0,0,0,0,833,0,Yes
12,5,12,0,0,3,0,0,0,0,0,0,0,879,0,No
5,3,9,0,0,3,0,0,0,0,0,0,0,868,0,No
8,12,19,0,0,3,0,0,0,0,0,0,0,824,0,No
14,8,26,0,0,3,0,0,0,0,0,0,0,868,0,No
0,0,0,0,0,3,0,0,0,0,0,0,0,879,0,No
2,2,7,0,0,3,0,0,0,0,0,0,0,336,0,No
2,4,12,0,0,4,0,0,0,0,0,0,0,388,0,No
2,3,9,0,0,5,0,0,0,0,0,0,0,434,0,No
4,13,19,0,0,4,0,0,0,0,0,0,0,346,0,No
2,4,8,0,0,3,0,0,0,0,0,0,0,346,0,No
1,9,25,0,0,4,0,0,0,0,0,0,0,339,0,No
1,2,1,0,0,3,0,0,0,0,0,0,0,409,0,No
1,1,1,0,0,3,0,0,0,0,0,0,0,231,0,No
6,10,21,0,0,3,0,0,0,0,0,0,0,234,0,No
4,4,7,0,0,3,0,0,0,0,0,0,0,432,0,No
4,10,27,16,2,5,8,8,0,0,1,8,14,329,0,No
2,13,11,0,0,3,0,0,0,0,0,0,0,234,0,No
0,0,0,0,0,3,0,0,0,0,0,0,0,440,0,No
3,5,12,0,0,4,0,0,0,0,0,0,0,308,0,No
13,2,18,0,0,3,0,0,0,0,0,0,0,332,0,No
5,0,5,0,0,3,0,0,0,0,0,0,0,815,0,No
3,0,3,0,0,3,0,0,0,0,0,0,0,578,0,No
6,1,16,0,0,4,0,0,0,0,0,0,0,578,0,Yes
2,0,6,0,0,4,0,0,0,0,0,0,0,263,0,No
15,8,19,0,0,5,0,0,0,0,0,0,0,364,0,Yes
17,6,17,0,0,4,0,0,0,0,0,0,0,364,0,No
1,0,1,0,0,3,0,0,0,0,0,0,0,440,0,No
1,0,1,0,0,3,0,0,0,0,0,0,0,440,0,No
10,4,14,0,0,4,0,0,0,0,0,0,0,341,0,No
16,2,25,0,0,4,0,0,0,0,0,0,0,341,0,No
20,7,35,0,0,4,0,0,0,0,0,0,0,341,0,No
6,0,18,0,0,3,0,0,0,0,0,0,0,363,0,No
5,0,17,0,0,3,0,0,0,0,0,0,0,363,0,No
0,0,0,0,0,4,0,0,0,0,0,0,0,509,0,No
5,1,6,0,0,3,0,0,0,0,0,0,0,948,0,No
25,1,52,0,0,3,0,0,0,0,0,0,0,795,0,No
0,0,0,0,0,3,0,0,0,0,0,0,0,909,0,No
8,0,8,0,0,4,0,0,0,0,0,0,0,948,0,No
29,0,39,0,0,4,0,0,0,0,0,0,0,915,0,No
18,1,24,0,0,4,0,0,0,0,0,0,0,411,0,No
1,0,1,0,0,3,0,0,0,0,0,0,0,909,0,No
15,1,17,0,0,4,0,0,0,0,0,0,0,948,0,No
7,1,8,0,0,3,0,0,0,0,0,0,0,948,0,No
2,0,3,0,0,1,0,0,0,0,0,0,0,235,0,No
3,0,6,0,0,3,0,0,0,0,0,0,0,893,0,No
1,1,8,0,0,3,0,0,0,0,0,0,0,772,0,No
6,2,11,0,0,3,0,0,0,0,0,0,0,668,0,No
1,7,3,0,0,3,0,0,0,0,0,0,0,578,0,No
7,0,12,0,0,3,0,0,0,0,0,0,0,508,0,No
8,2,28,0,0,1,0,0,0,0,0,0,0,290,0,No
2,6,7,0,0,4,0,0,0,0,0,0,0,508,0,No
2,3,2,0,0,3,0,0,0,0,0,0,0,578,0,No
3,5,11,0,0,4,0,0,0,0,0,0,0,884,0,No
10,5,18,0,0,3,0,0,0,0,0,0,0,857,0,No
0,2,0,0,0,4,0,0,0,0,0,0,0,907,0,No
2,5,2,0,0,4,0,0,0,0,0,0,0,857,0,No
2,5,5,0,0,4,0,0,0,0,0,0,0,857,0,No
3,5,11,0,0,3,0,0,0,0,0,0,0,578,0,No
10,13,22,0,0,5,0,0,0,0,0,0,0,465,0,Yes
7,10,11,0,0,4,0,0,0,0,0,0,0,303,0,No
5,5,15,0,0,3,0,0,0,0,0,0,0,417,0,No
1,5,1,0,0,4,0,0,0,0,0,0,0,394,0,No
6,6,11,0,0,3,0,0,0,0,0,0,0,417,0,No
2,5,2,0,0,4,0,0,0,0,0,0,0,394,0,No
0,0,0,0,0,4,0,0,0,0,0,0,0,948,0,No
11,6,21,0,0,5,0,0,0,0,0,0,0,884,0,No
0,0,0,0,0,3,0,0,0,0,0,0,0,909,0,No
1,1,10,0,0,3,0,0,0,0,0,0,0,395,0,No
1,0,1,0,0,3,0,0,0,0,0,0,0,948,0,No
5,0,16,0,0,4,0,0,0,0,0,0,0,857,0,No
5,0,5,0,0,4,0,0,0,0,0,0,0,857,0,No
6,1,32,0,0,5,0,0,0,0,0,0,0,465,0,No
19,0,35,0,0,3,0,0,0,0,0,0,0,465,0,No
9,0,30,0,0,1,0,0,0,0,0,0,0,278,0,No
4,4,5,0,0,3,0,0,0,0,0,0,0,394,0,No
1,1,4,7,1,4,3,3,-1,0,1,6,17,422,0,No
7,21,26,0,1,4,0,0,0,0,0,0,0,398,0,No
9,1,18,0,0,4,0,0,0,0,0,0,0,948,0,No
9,1,9,0,0,3,0,0,0,0,0,0,0,905,0,No
7,1,7,0,0,3,0,0,0,0,0,0,0,905,0,No
19,3,25,0,0,3,0,0,0,0,0,0,0,913,0,No
39,6,49,0,0,5,0,0,0,0,0,0,0,893,0,No
13,2,27,0,0,3,0,0,0,0,0,0,0,303,0,No
17,4,18,0,0,4,0,0,0,0,0,0,0,509,0,No
24,7,30,0,0,5,0,0,0,0,0,0,0,872,0,No
12,5,12,0,0,3,0,0,0,0,0,0,0,948,0,No
5,3,9,0,0,3,0,0,0,0,0,0,0,937,0,No
8,12,19,0,0,3,0,0,0,0,0,0,0,893,0,No
14,8,26,0,0,3,0,0,0,0,0,0,0,937,0,No
0,0,0,0,0,3,0,0,0,0,0,0,0,948,0,No
2,2,7,0,0,3,0,0,0,0,0,0,0,405,0,No
2,4,12,0,0,4,0,0,0,0,0,0,0,457,0,No
2,3,9,0,0,5,0,0,0,0,0,0,0,503,0,No
4,13,24,51,0,5,30,30,9,9,1,4,6,415,0,No
2,4,8,0,0,3,0,0,0,0,0,0,0,415,0,No
1,9,25,0,0,4,0,0,0,0,0,0,0,408,0,Yes
1,2,1,0,0,3,0,0,0,0,0,0,0,478,0,No
1,7,18,42,0,5,15,15,-12,0,1,4,6,478,0,No
1,1,1,0,0,3,0,0,0,0,0,0,0,300,0,No
6,10,21,0,0,3,0,0,0,0,0,0,0,303,0,No
4,4,7,0,0,3,0,0,0,0,0,0,0,501,0,No
4,10,27,0,2,5,0,0,0,0,0,0,0,398,0,No
2,13,11,0,0,3,0,0,0,0,0,0,0,303,0,No
0,0,0,0,0,3,0,0,0,0,0,0,0,509,0,No
3,5,12,0,0,4,0,0,0,0,0,0,0,377,0,No
13,2,18,0,0,3,0,0,0,0,0,0,0,401,0,No
5,0,5,0,0,3,0,0,0,0,0,0,0,884,0,No
3,0,3,0,0,3,0,0,0,0,0,0,0,647,0,No
7,1,17,10,1,4,7,7,4,4,3,8,8,647,0,No
2,0,6,0,0,4,0,0,0,0,0,0,0,332,0,No
18,8,18,11,1,4,11,11,11,11,1,6,17,433,0,No
1,0,1,0,0,3,0,0,0,0,0,0,0,509,0,No
1,0,1,0,0,3,0,0,0,0,0,0,0,509,0,No
10,4,14,0,0,4,0,0,0,0,0,0,0,410,0,No
16,2,25,0,0,4,0,0,0,0,0,0,0,410,0,No
20,7,35,0,0,4,0,0,0,0,0,0,0,410,0,No
6,0,18,0,0,3,0,0,0,0,0,0,0,407,0,No
5,0,17,0,0,3,0,0,0,0,0,0,0,407,0,No
4,0,5,101,0,1,101,101,101,101,2,9,15,0,0,No
0,0,0,0,0,4,0,0,0,0,0,0,0,553,0,No
5,1,6,0,0,3,0,0,0,0,0,0,0,992,0,No
25,1,52,0,0,3,0,0,0,0,0,0,0,839,0,No
0,0,0,0,0,3,0,0,0,0,0,0,0,953,0,No
8,0,8,0,0,4,0,0,0,0,0,0,0,992,0,No
29,0,39,0,0,4,0,0,0,0,0,0,0,959,0,No
18,1,24,0,0,4,0,0,0,0,0,0,0,455,0,No
1,0,1,0,0,3,0,0,0,0,0,0,0,953,0,No
15,1,17,0,0,4,0,0,0,0,0,0,0,992,0,No
7,1,8,0,0,3,0,0,0,0,0,0,0,992,0,No
2,0,3,0,0,1,0,0,0,0,0,0,0,279,0,No
3,0,6,0,0,3,0,0,0,0,0,0,0,937,0,No
1,1,8,0,0,3,0,0,0,0,0,0,0,816,0,No
6,2,11,0,0,3,0,0,0,0,0,0,0,712,0,No
1,7,3,0,0,3,0,0,0,0,0,0,0,622,0,Yes
7,0,12,0,0,3,0,0,0,0,0,0,0,552,0,No
8,2,28,0,0,1,0,0,0,0,0,0,0,334,0,No
2,6,7,0,0,4,0,0,0,0,0,0,0,552,0,Yes
2,3,2,0,0,3,0,0,0,0,0,0,0,622,0,No
3,5,11,0,0,4,0,0,0,0,0,0,0,928,0,Yes
10,5,18,0,0,3,0,0,0,0,0,0,0,901,0,Yes
0,2,0,0,0,4,0,0,0,0,0,0,0,951,0,No
2,5,2,0,0,4,0,0,0,0,0,0,0,901,0,Yes
2,5,5,0,0,4,0,0,0,0,0,0,0,901,0,Yes
3,5,11,0,0,3,0,0,0,0,0,0,0,622,0,Yes
10,13,22,0,0,5,0,0,0,0,0,0,0,509,0,Yes
7,10,11,0,0,4,0,0,0,0,0,0,0,347,0,No
5,5,15,6,0,4,3,3,0,0,1,2,4,461,0,No
1,5,1,0,0,4,0,0,0,0,0,0,0,438,0,No
6,6,11,4,0,4,2,2,0,0,1,2,4,461,0,No
2,5,2,0,0,4,0,0,0,0,0,0,0,438,0,Yes
0,0,0,0,0,4,0,0,0,0,0,0,0,992,0,No
11,6,21,0,0,5,0,0,0,0,0,0,0,928,0,Yes
0,0,0,0,0,3,0,0,0,0,0,0,0,953,0,No
1,1,10,0,0,3,0,0,0,0,0,0,0,439,0,Yes
1,0,1,0,0,3,0,0,0,0,0,0,0,992,0,No
5,0,16,0,0,4,0,0,0,0,0,0,0,901,0,Yes
5,0,5,0,0,4,0,0,0,0,0,0,0,901,0,Yes
6,1,32,0,0,5,0,0,0,0,0,0,0,509,0,No
19,0,35,0,0,3,0,0,0,0,0,0,0,509,0,Yes
9,0,30,0,0,1,0,0,0,0,0,0,0,322,0,No
4,4,5,0,0,3,0,0,0,0,0,0,0,438,0,No
1,1,4,0,1,4,0,0,0,0,0,0,0,466,0,No
7,21,26,56,1,4,31,19,6,3,2,6,8,442,0,No
9,1,18,0,0,4,0,0,0,0,0,0,0,992,0,Yes
9,1,9,0,0,3,0,0,0,0,0,0,0,949,0,No
7,1,7,0,0,3,0,0,0,0,0,0,0,949,0,No
19,3,25,0,0,3,0,0,0,0,0,0,0,957,0,No
39,6,49,0,0,5,0,0,0,0,0,0,0,937,0,No
13,2,27,0,0,3,0,0,0,0,0,0,0,347,0,No
17,4,18,0,0,4,0,0,0,0,0,0,0,553,0,No
24,7,30,0,0,5,0,0,0,0,0,0,0,916,0,No
12,5,12,0,0,3,0,0,0,0,0,0,0,992,0,No
5,3,9,0,0,3,0,0,0,0,0,0,0,981,0,No
8,12,19,0,0,3,0,0,0,0,0,0,0,937,0,No
14,8,26,0,0,3,0,0,0,0,0,0,0,981,0,No
0,0,0,0,0,3,0,0,0,0,0,0,0,992,0,No
2,2,7,0,0,3,0,0,0,0,0,0,0,449,0,No
2,4,12,0,0,4,0,0,0,0,0,0,0,501,0,No
2,3,9,0,0,5,0,0,0,0,0,0,0,547,0,No
4,13,24,0,0,5,0,0,0,0,0,0,0,459,0,No
2,4,8,0,0,3,0,0,0,0,0,0,0,459,0,No
1,9,25,11,1,4,6,6,1,1,1,7,10,452,0,Yes
1,2,1,0,0,3,0,0,0,0,0,0,0,522,0,No
1,7,18,0,0,5,0,0,0,0,0,0,0,522,0,No
1,1,1,0,0,3,0,0,0,0,0,0,0,344,0,No
0,0,0,23,0,4,23,23,23,23,2,9,15,953,0,No
6,10,21,0,0,3,0,0,0,0,0,0,0,347,0,No
4,4,7,0,0,3,0,0,0,0,0,0,0,545,0,No
4,10,27,91,2,5,49,42,7,4,2,6,8,442,0,No
2,13,11,0,0,3,0,0,0,0,0,0,0,347,0,No
0,0,0,0,0,3,0,0,0,0,0,0,0,553,0,No
3,5,12,0,0,4,0,0,0,0,0,0,0,421,0,No
13,2,18,0,0,3,0,0,0,0,0,0,0,445,0,No
5,0,5,0,0,3,0,0,0,0,0,0,0,928,0,No
7,1,17,0,1,4,0,0,0,0,0,0,0,691,0,No
2,0,6,0,0,4,0,0,0,0,0,0,0,376,0,No
18,8,18,0,1,4,0,0,0,0,0,0,0,477,0,No
1,0,1,0,0,3,0,0,0,0,0,0,0,553,0,No
1,0,1,0,0,3,0,0,0,0,0,0,0,553,0,No
10,4,14,0,0,4,0,0,0,0,0,0,0,454,0,No
16,2,25,0,0,4,0,0,0,0,0,0,0,454,0,No
20,7,35,0,0,4,0,0,0,0,0,0,0,454,0,No
6,0,18,0,0,3,0,0,0,0,0,0,0,442,0,No
5,0,17,0,0,3,0,0,0,0,0,0,0,442,0,No
4,0,5,0,0,1,0,0,0,0,0,0,0,35,0,No
0,0,0,0,0,4,0,0,0,0,0,0,0,588,0,No
5,1,6,0,0,3,0,0,0,0,0,0,0,1027,0,No
25,1,52,0,0,3,0,0,0,0,0,0,0,874,0,No
0,0,0,0,0,3,0,0,0,0,0,0,0,988,0,No
8,0,8,0,0,4,0,0,0,0,0,0,0,1027,0,No
29,0,39,0,0,4,0,0,0,0,0,0,0,994,0,No
20,1,26,12,0,4,11,11,10,10,3,7,15,490,0,No
1,0,1,0,0,3,0,0,0,0,0,0,0,988,0,No
15,1,17,0,0,4,0,0,0,0,0,0,0,1027,0,No
7,1,8,0,0,3,0,0,0,0,0,0,0,1027,0,No
2,0,3,0,0,1,0,0,0,0,0,0,0,314,0,No
3,0,6,0,0,3,0,0,0,0,0,0,0,972,0,No
1,1,8,0,0,3,0,0,0,0,0,0,0,851,0,No
6,2,11,0,0,3,0,0,0,0,0,0,0,747,0,No
1,7,3,0,0,3,0,0,0,0,0,0,0,657,0,Yes
7,0,12,0,0,3,0,0,0,0,0,0,0,587,0,No
8,2,28,0,0,1,0,0,0,0,0,0,0,369,0,No
2,7,7,25,0,4,12,12,-1,0,1,9,92,587,0,No
2,3,2,0,0,3,0,0,0,0,0,0,0,657,0,No
3,6,11,17,0,4,8,8,-1,0,1,9,92,963,0,No
10,6,18,19,0,3,9,9,-1,0,1,9,92,936,0,Yes
0,2,0,0,0,4,0,0,0,0,0,0,0,986,0,No
2,5,2,18,0,4,9,7,0,0,2,11,100,936,0,No
2,6,5,29,1,5,14,12,-1,1,3,12,105,936,0,Yes
3,6,11,18,0,3,8,8,-2,0,1,9,92,657,0,No
10,13,22,22,1,5,10,10,-2,0,1,8,15,544,0,No
7,10,11,0,0,4,0,0,0,0,0,0,0,382,0,No
5,5,15,0,0,4,0,0,0,0,0,0,0,496,0,No
1,5,1,25,0,4,12,9,-1,0,2,11,100,473,0,No
6,6,11,0,0,4,0,0,0,0,0,0,0,496,0,No
0,0,0,0,0,4,0,0,0,0,0,0,0,1027,0,No
11,6,21,47,1,5,24,17,1,1,3,5,6,963,0,No
0,0,0,0,0,3,0,0,0,0,0,0,0,988,0,No
1,1,10,0,0,3,0,0,0,0,0,0,0,474,0,Yes
1,0,1,0,0,3,0,0,0,0,0,0,0,1027,0,Yes
5,0,16,0,0,4,0,0,0,0,0,0,0,936,0,No
5,0,5,0,0,4,0,0,0,0,0,0,0,936,0,Yes
6,1,32,0,0,5,0,0,0,0,0,0,0,544,0,No
19,0,35,0,0,3,0,0,0,0,0,0,0,544,0,No
9,0,30,0,0,1,0,0,0,0,0,0,0,357,0,No
4,4,5,0,0,3,0,0,0,0,0,0,0,473,0,No
1,1,4,0,1,4,0,0,0,0,0,0,0,501,0,No
7,21,26,0,1,4,0,0,0,0,0,0,0,477,0,No
9,1,18,4,1,4,2,2,0,0,1,8,10,1027,0,Yes
9,1,9,0,0,3,0,0,0,0,0,0,0,984,0,No
7,1,7,0,0,3,0,0,0,0,0,0,0,984,0,No
19,3,25,0,0,3,0,0,0,0,0,0,0,992,0,No
39,6,49,0,0,5,0,0,0,0,0,0,0,972,0,No
13,2,27,0,0,3,0,0,0,0,0,0,0,382,0,No
17,4,18,0,0,4,0,0,0,0,0,0,0,588,0,No
24,7,30,0,0,5,0,0,0,0,0,0,0,951,0,No
12,5,12,0,0,3,0,0,0,0,0,0,0,1027,0,No
5,3,9,0,0,3,0,0,0,0,0,0,0,1016,0,No
8,12,19,0,0,3,0,0,0,0,0,0,0,972,0,No
14,8,26,0,0,3,0,0,0,0,0,0,0,1016,0,No
0,0,0,0,0,3,0,0,0,0,0,0,0,1027,0,No
2,2,7,0,0,3,0,0,0,0,0,0,0,484,0,Yes
2,4,12,0,0,4,0,0,0,0,0,0,0,536,0,No
2,3,9,0,0,5,0,0,0,0,0,0,0,582,0,Yes
4,13,24,0,0,5,0,0,0,0,0,0,0,494,0,Yes
2,4,8,0,0,3,0,0,0,0,0,0,0,494,0,Yes
1,9,25,2,2,4,1,1,0,0,1,8,10,487,0,No
1,2,1,0,0,3,0,0,0,0,0,0,0,557,0,No
1,7,18,0,0,5,0,0,0,0,0,0,0,557,0,No
1,1,1,0,0,3,0,0,0,0,0,0,0,379,0,No
0,0,0,0,0,4,0,0,0,0,0,0,0,988,0,No
6,10,21,0,0,3,0,0,0,0,0,0,0,382,0,No
4,4,7,0,0,3,0,0,0,0,0,0,0,580,0,No
4,10,27,0,2,5,0,0,0,0,0,0,0,477,0,No
2,13,11,0,0,3,0,0,0,0,0,0,0,382,0,No
0,0,0,0,0,3,0,0,0,0,0,0,0,588,0,No
3,5,12,0,0,4,0,0,0,0,0,0,0,456,0,No
13,2,18,0,0,3,0,0,0,0,0,0,0,480,0,No
5,0,5,0,0,3,0,0,0,0,0,0,0,963,0,No
7,1,17,0,1,4,0,0,0,0,0,0,0,726,0,No
6,1,16,172,0,1,166,159,160,159,2,6,12,13,0,Yes
4,1,14,95,0,1,84,64,73,64,2,6,12,13,0,Yes
2,0,6,0,0,4,0,0,0,0,0,0,0,411,0,No
18,8,18,0,1,4,0,0,0,0,0,0,0,512,0,No
1,0,1,0,0,3,0,0,0,0,0,0,0,588,0,No
1,0,1,0,0,3,0,0,0,0,0,0,0,588,0,No
10,4,14,0,0,4,0,0,0,0,0,0,0,489,0,No
16,2,25,0,0,4,0,0,0,0,0,0,0,489,0,No
20,7,35,0,0,4,0,0,0,0,0,0,0,489,0,No
6,0,18,0,0,3,0,0,0,0,0,0,0,469,0,No
5,0,17,0,0,3,0,0,0,0,0,0,0,469,0,No
4,0,5,0,0,1,0,0,0,0,0,0,0,62,0,No
0,0,0,0,0,4,0,0,0,0,0,0,0,615,0,No
5,1,6,0,0,3,0,0,0,0,0,0,0,1054,0,No
25,1,52,0,0,3,0,0,0,0,0,0,0,901,0,No
0,0,0,0,0,3,0,0,0,0,0,0,0,1015,0,No
8,0,8,0,0,4,0,0,0,0,0,0,0,1054,0,No
29,0,39,0,0,4,0,0,0,0,0,0,0,1021,0,No
20,1,26,0,0,4,0,0,0,0,0,0,0,517,0,No
1,0,1,0,0,3,0,0,0,0,0,0,0,1015,0,No
15,1,17,0,0,4,0,0,0,0,0,0,0,1054,0,No
7,1,8,0,0,3,0,0,0,0,0,0,0,1054,0,No
2,0,3,0,0,1,0,0,0,0,0,0,0,341,0,No
3,0,6,0,0,3,0,0,0,0,0,0,0,999,0,No
1,1,8,0,0,3,0,0,0,0,0,0,0,878,0,No
6,2,11,0,0,3,0,0,0,0,0,0,0,774,0,No
1,7,3,0,0,3,0,0,0,0,0,0,0,684,0,No
7,0,12,0,0,3,0,0,0,0,0,0,0,614,0,No
8,2,28,0,0,1,0,0,0,0,0,0,0,396,0,No
2,7,7,0,0,4,0,0,0,0,0,0,0,614,0,No
2,3,2,0,0,3,0,0,0,0,0,0,0,684,0,No
3,6,11,0,0,4,0,0,0,0,0,0,0,990,0,No
10,3,15,130,2,3,51,47,-28,0,2,6,8,963,0,No
0,2,0,0,0,4,0,0,0,0,0,0,0,1013,0,No
2,5,2,0,0,4,0,0,0,0,0,0,0,963,0,No
2,6,5,69,1,5,35,35,1,1,1,5,6,963,0,No
3,6,11,0,0,3,0,0,0,0,0,0,0,684,0,No
10,13,22,0,1,5,0,0,0,0,0,0,0,571,0,No
7,10,11,0,0,4,0,0,0,0,0,0,0,409,0,No
5,5,15,0,0,4,0,0,0,0,0,0,0,523,0,No
1,5,1,17,0,5,7,6,-3,0,2,8,15,500,0,No
6,6,11,0,0,4,0,0,0,0,0,0,0,523,0,No
0,0,0,0,0,4,0,0,0,0,0,0,0,1054,0,No
11,6,21,0,1,5,0,0,0,0,0,0,0,990,0,No
0,0,0,0,0,3,0,0,0,0,0,0,0,1015,0,No
1,1,10,9,1,3,5,5,1,1,1,3,5,501,0,No
1,0,1,0,0,3,0,0,0,0,0,0,0,1054,0,No
5,0,16,0,0,4,0,0,0,0,0,0,0,963,0,No
5,0,5,11,1,5,6,6,1,1,1,1,2,963,0,No
6,1,32,0,0,5,0,0,0,0,0,0,0,571,0,No
19,0,35,0,0,3,0,0,0,0,0,0,0,571,0,No
9,0,30,0,0,1,0,0,0,0,0,0,0,384,0,No
4,5,5,20,0,4,12,9,4,4,2,9,10,500,0,No
1,1,4,0,1,4,0,0,0,0,0,0,0,528,0,No
7,21,26,0,1,4,0,0,0,0,0,0,0,504,0,Yes
9,1,18,0,1,4,0,0,0,0,0,0,0,1054,0,No
9,1,9,0,0,3,0,0,0,0,0,0,0,1011,0,No
7,1,7,0,0,3,0,0,0,0,0,0,0,1011,0,No
19,3,25,0,0,3,0,0,0,0,0,0,0,1019,0,No
39,6,49,0,0,5,0,0,0,0,0,0,0,999,0,No
13,2,27,0,0,3,0,0,0,0,0,0,0,409,0,No
17,4,18,0,0,4,0,0,0,0,0,0,0,615,0,No
24,7,30,0,0,5,0,0,0,0,0,0,0,978,0,No
12,5,12,0,0,3,0,0,0,0,0,0,0,1054,0,Yes
5,3,9,0,0,3,0,0,0,0,0,0,0,1043,0,No
8,12,19,0,0,3,0,0,0,0,0,0,0,999,0,No
14,8,26,0,0,3,0,0,0,0,0,0,0,1043,0,Yes
0,0,0,0,0,3,0,0,0,0,0,0,0,1054,0,No
2,2,7,0,0,3,0,0,0,0,0,0,0,511,0,No
2,4,12,0,0,4,0,0,0,0,0,0,0,563,0,No
2,3,9,0,0,5,0,0,0,0,0,0,0,609,0,No
4,13,24,0,0,5,0,0,0,0,0,0,0,521,0,No
2,4,8,0,0,3,0,0,0,0,0,0,0,521,0,No
1,9,25,0,2,4,0,0,0,0,0,0,0,514,0,No
1,2,1,0,0,3,0,0,0,0,0,0,0,584,0,No
1,7,18,0,0,5,0,0,0,0,0,0,0,584,0,No
1,1,1,0,0,3,0,0,0,0,0,0,0,406,0,No
0,0,0,0,0,4,0,0,0,0,0,0,0,1015,0,No
6,10,21,0,0,3,0,0,0,0,0,0,0,409,0,No
4,4,7,0,0,3,0,0,0,0,0,0,0,607,0,No
4,10,27,0,2,5,0,0,0,0,0,0,0,504,0,No
2,13,11,0,0,3,0,0,0,0,0,0,0,409,0,No
0,0,0,0,0,3,0,0,0,0,0,0,0,615,0,No
3,5,12,0,0,4,0,0,0,0,0,0,0,483,0,No
13,2,18,0,0,3,0,0,0,0,0,0,0,507,0,No
5,0,5,0,0,3,0,0,0,0,0,0,0,990,0,No
7,1,17,0,1,4,0,0,0,0,0,0,0,753,0,No
6,1,16,0,0,1,0,0,0,0,0,0,0,40,0,No
4,1,14,0,0,1,0,0,0,0,0,0,0,40,0,No
2,0,6,0,0,4,0,0,0,0,0,0,0,438,0,No
18,8,18,0,1,4,0,0,0,0,0,0,0,539,0,No
1,0,1,0,0,3,0,0,0,0,0,0,0,615,0,No
1,0,1,0,0,3,0,0,0,0,0,0,0,615,0,No
10,4,14,0,0,4,0,0,0,0,0,0,0,516,0,No
16,2,25,0,0,4,0,0,0,0,0,0,0,516,0,No
20,7,35,0,0,4,0,0,0,0,0,0,0,516,0,No
6,0,17,19,0,3,13,13,7,7,7,26,39,479,0,Yes
5,0,17,0,0,3,0,0,0,0,0,0,0,479,0,No
4,0,5,12,0,2,8,8,4,4,7,26,39,71,0,No
15,15,35,0,2,4,0,0,0,0,0,0,0,87,0,No
0,0,0,0,0,5,0,0,0,0,0,0,0,625,0,No
0,0,0,0,0,4,0,0,0,0,0,0,0,1025,0,No
5,1,6,0,0,4,0,0,0,0,0,0,0,1064,0,No
29,1,51,0,0,4,0,0,0,0,0,0,0,911,0,No
4,2,4,0,0,2,0,0,0,0,0,0,0,91,0,No
5,1,5,0,0,3,0,0,0,0,0,0,0,86,0,No
6,1,6,0,0,3,0,0,0,0,0,0,0,86,0,No
20,0,29,0,0,6,0,0,0,0,0,0,0,1031,0,No
9,1,16,0,0,1,0,0,0,0,0,0,0,23,0,No
16,1,18,0,0,5,0,0,0,0,0,0,0,514,0,No
6,1,9,0,0,2,0,0,0,0,0,0,0,71,0,No
30,0,37,0,0,5,0,0,0,0,0,0,0,993,0,No
10,3,13,0,0,5,0,0,0,0,0,0,0,511,0,No
25,0,31,0,0,5,0,0,0,0,0,0,0,1031,0,No
0,1,0,0,0,4,0,0,0,0,0,0,0,1025,0,No
1,0,1,0,0,4,0,0,0,0,0,0,0,1025,0,No
1,0,1,0,0,5,0,0,0,0,0,0,0,1025,0,No
15,1,17,0,0,5,0,0,0,0,0,0,0,1064,0,No
7,1,7,0,0,4,0,0,0,0,0,0,0,1064,0,No
1,0,1,0,0,4,0,0,0,0,0,0,0,1025,0,No
2,0,3,1,0,2,1,1,1,1,7,26,39,351,0,No
1,0,1,0,0,4,0,0,0,0,0,0,0,1025,0,No
2,0,2,0,0,4,0,0,0,0,0,0,0,1025,0,No
2,0,3,0,0,4,0,0,0,0,0,0,0,1025,0,No
1,0,1,0,0,4,0,0,0,0,0,0,0,1025,0,No
1,0,1,0,0,4,0,0,0,0,0,0,0,1025,0,No
2,4,2,0,1,4,0,0,0,0,0,0,0,625,0,No
3,0,6,0,1,4,0,0,0,0,0,0,0,1009,0,No
1,0,1,0,0,4,0,0,0,0,0,0,0,625,0,No
17,10,34,0,1,4,0,0,0,0,0,0,0,76,0,No
1,1,8,0,0,3,0,0,0,0,0,0,0,888,0,No
3,0,3,0,0,2,0,0,0,0,0,0,0,63,0,No
7,2,12,0,0,4,0,0,0,0,0,0,0,784,0,No
1,1,4,0,0,3,0,0,0,0,0,0,0,1064,0,No
7,0,12,0,0,5,0,0,0,0,0,0,0,624,0,No
8,2,28,0,0,3,0,0,0,0,0,0,0,406,0,No
3,6,8,0,1,6,0,0,0,0,0,0,0,624,0,No
6,6,7,0,0,1,0,0,0,0,0,0,0,23,0,No
4,6,12,0,2,6,0,0,0,0,0,0,0,1000,0,No
11,3,16,0,3,6,0,0,0,0,0,0,0,973,0,No
0,2,0,0,0,5,0,0,0,0,0,0,0,1023,0,No
5,5,9,0,3,7,0,0,0,0,0,0,0,973,0,No
4,5,6,0,0,4,0,0,0,0,0,0,0,157,0,No
4,6,12,0,1,5,0,0,0,0,0,0,0,694,0,No
0,2,0,0,0,5,0,0,0,0,0,0,0,1025,0,No
12,15,51,0,0,3,0,0,0,0,0,0,0,105,0,Yes
17,9,23,0,4,7,0,0,0,0,0,0,0,517,0,No
8,7,9,0,0,2,0,0,0,0,0,0,0,23,0,Yes
14,14,33,0,1,7,0,0,0,0,0,0,0,581,0,No
7,10,11,0,0,7,0,0,0,0,0,0,0,419,0,No
5,5,15,0,0,7,0,0,0,0,0,0,0,533,0,No
3,12,15,0,1,6,0,0,0,0,0,0,0,609,0,Yes
11,11,15,0,2,4,0,0,0,0,0,0,0,105,0,No
6,6,11,0,0,7,0,0,0,0,0,0,0,533,0,No
13,11,26,0,3,6,0,0,0,0,0,0,0,1000,0,No
0,0,0,0,0,4,0,0,0,0,0,0,0,1025,0,No
7,7,16,0,3,7,0,0,0,0,0,0,0,581,0,Yes
4,1,4,0,1,5,0,0,0,0,0,0,0,514,0,No
5,0,16,0,1,6,0,0,0,0,0,0,0,973,0,No
5,0,5,0,2,6,0,0,0,0,0,0,0,973,0,No
6,1,32,0,0,6,0,0,0,0,0,0,0,581,0,No
19,0,35,0,2,6,0,0,0,0,0,0,0,581,0,No
9,0,30,0,0,3,0,0,0,0,0,0,0,394,0,No
11,8,86,0,1,5,0,0,0,0,0,0,0,163,0,No
5,3,11,0,1,3,0,0,0,0,0,0,0,80,0,No
6,23,25,0,0,7,0,0,0,0,0,0,0,514,0,Yes
6,0,15,0,2,5,0,0,0,0,0,0,0,1064,0,No
9,1,9,0,0,4,0,0,0,0,0,0,0,1021,0,No
8,1,8,0,0,5,0,0,0,0,0,0,0,1021,0,No
44,7,49,27,0,6,12,12,-3,0,1,8,15,1009,0,No
13,2,27,0,0,4,0,0,0,0,0,0,0,419,0,No
8,3,19,0,0,2,0,0,0,0,0,0,0,144,0,No
53,10,93,0,1,8,0,0,0,0,0,0,0,1018,0,Yes
10,3,23,0,0,2,0,0,0,0,0,0,0,144,0,No
17,8,17,0,0,6,0,0,0,0,0,0,0,1064,0,Yes
5,3,9,0,0,4,0,0,0,0,0,0,0,1053,0,No
0,0,0,0,0,3,0,0,0,0,0,0,0,1064,0,No
2,2,7,0,0,4,0,0,0,0,0,0,0,521,0,No
2,3,9,0,0,8,0,0,0,0,0,0,0,619,0,No
2,2,4,0,0,2,0,0,0,0,0,0,0,161,0,No
4,13,24,0,0,7,0,0,0,0,0,0,0,531,0,No
2,4,8,0,0,4,0,0,0,0,0,0,0,531,0,No
1,2,1,0,0,4,0,0,0,0,0,0,0,594,0,No
1,7,18,0,0,5,0,0,0,0,0,0,0,594,0,No
0,0,0,0,0,1,0,0,0,0,0,0,0,163,0,No
2,5,10,15,0,3,10,10,5,5,1,2,3,164,0,No
4,4,7,0,0,4,0,0,0,0,0,0,0,617,0,No
3,5,12,0,0,4,0,0,0,0,0,0,0,493,0,No
2,12,11,0,0,4,0,0,0,0,0,0,0,419,0,No
0,0,0,0,0,3,0,0,0,0,0,0,0,625,0,No
9,29,29,0,1,8,0,0,0,0,0,0,0,1002,0,No
7,11,23,0,0,5,0,0,0,0,0,0,0,419,0,No
7,25,50,0,0,8,0,0,0,0,0,0,0,902,0,Yes
3,0,18,0,0,2,0,0,0,0,0,0,0,76,0,No
9,12,36,0,1,5,0,0,0,0,0,0,0,76,0,No
5,0,5,0,0,4,0,0,0,0,0,0,0,1000,0,No
4,5,10,0,0,1,0,0,0,0,0,0,0,63,0,No
6,23,65,4,1,6,2,2,0,0,1,1,1,163,0,No
8,1,18,0,0,5,0,0,0,0,0,0,0,763,0,No
2,0,6,0,0,4,0,0,0,0,0,0,0,448,0,No
10,7,10,0,1,7,0,0,0,0,0,0,0,549,0,No
8,4,12,0,0,5,0,0,0,0,0,0,0,526,0,No
17,2,26,0,0,5,0,0,0,0,0,0,0,526,0,No
21,7,39,0,0,5,0,0,0,0,0,0,0,526,0,Yes
1,0,1,0,0,3,0,0,0,0,0,0,0,625,0,No
1,0,1,0,0,3,0,0,0,0,0,0,0,625,0,No
6,0,18,0,0,3,0,0,0,0,0,0,0,492,0,Yes
5,0,17,0,0,3,0,0,0,0,0,0,0,492,0,No
4,0,5,0,0,1,0,0,0,0,0,0,0,85,0,No
0,0,0,0,0,4,0,0,0,0,0,0,0,638,0,No
5,1,6,0,0,3,0,0,0,0,0,0,0,1077,0,No
25,1,52,0,0,3,0,0,0,0,0,0,0,924,0,No
0,0,0,0,0,3,0,0,0,0,0,0,0,1038,0,No
8,0,8,0,0,4,0,0,0,0,0,0,0,1077,0,No
29,0,39,0,0,4,0,0,0,0,0,0,0,1044,0,No
20,1,26,0,0,4,0,0,0,0,0,0,0,540,0,No
1,0,1,0,0,3,0,0,0,0,0,0,0,1038,0,No
15,1,17,0,0,4,0,0,0,0,0,0,0,1077,0,No
7,1,8,0,0,3,0,0,0,0,0,0,0,1077,0,No
2,0,3,0,0,1,0,0,0,0,0,0,0,364,0,No
3,0,6,0,0,3,0,0,0,0,0,0,0,1022,0,No
1,1,8,0,0,3,0,0,0,0,0,0,0,901,0,No
6,2,11,0,0,3,0,0,0,0,0,0,0,797,0,No
1,7,3,0,0,3,0,0,0,0,0,0,0,707,0,No
7,0,12,0,0,3,0,0,0,0,0,0,0,637,0,No
8,2,28,0,0,1,0,0,0,0,0,0,0,419,0,No
2,7,7,0,0,4,0,0,0,0,0,0,0,637,0,No
2,3,2,0,0,3,0,0,0,0,0,0,0,707,0,No
3,6,11,0,0,4,0,0,0,0,0,0,0,1013,0,No
10,3,15,0,2,3,0,0,0,0,0,0,0,986,0,No
0,2,0,0,0,4,0,0,0,0,0,0,0,1036,0,No
2,5,2,0,0,4,0,0,0,0,0,0,0,986,0,No
2,6,5,0,1,5,0,0,0,0,0,0,0,986,0,No
3,6,11,0,0,3,0,0,0,0,0,0,0,707,0,No
10,13,22,0,1,5,0,0,0,0,0,0,0,594,0,No
7,10,11,0,0,4,0,0,0,0,0,0,0,432,0,No
5,5,15,0,0,4,0,0,0,0,0,0,0,546,0,No
1,5,1,0,0,5,0,0,0,0,0,0,0,523,0,No
6,6,11,0,0,4,0,0,0,0,0,0,0,546,0,No
0,0,0,0,0,4,0,0,0,0,0,0,0,1077,0,No
11,6,21,0,1,5,0,0,0,0,0,0,0,1013,0,No
0,0,0,0,0,3,0,0,0,0,0,0,0,1038,0,No
1,1,10,0,1,3,0,0,0,0,0,0,0,524,0,No
1,0,1,0,0,3,0,0,0,0,0,0,0,1077,0,No
5,0,16,0,0,4,0,0,0,0,0,0,0,986,0,No
5,0,5,0,1,5,0,0,0,0,0,0,0,986,0,No
6,1,32,0,0,5,0,0,0,0,0,0,0,594,0,No
19,0,35,0,0,3,0,0,0,0,0,0,0,594,0,No
9,0,30,0,0,1,0,0,0,0,0,0,0,407,0,No
4,5,5,0,0,4,0,0,0,0,0,0,0,523,0,No
1,1,4,0,1,4,0,0,0,0,0,0,0,551,0,No
7,21,26,0,1,4,0,0,0,0,0,0,0,527,0,Yes
9,1,18,0,1,4,0,0,0,0,0,0,0,1077,0,No
9,1,9,0,0,3,0,0,0,0,0,0,0,1034,0,No
7,1,7,0,0,3,0,0,0,0,0,0,0,1034,0,No
19,3,25,0,0,3,0,0,0,0,0,0,0,1042,0,No
39,6,49,0,0,5,0,0,0,0,0,0,0,1022,0,No
13,2,27,0,0,3,0,0,0,0,0,0,0,432,0,No
24,7,30,0,0,5,0,0,0,0,0,0,0,1001,0,No
12,5,12,0,0,3,0,0,0,0,0,0,0,1077,0,Yes
5,3,9,0,0,3,0,0,0,0,0,0,0,1066,0,No
8,12,19,0,0,3,0,0,0,0,0,0,0,1022,0,No
14,8,26,0,0,3,0,0,0,0,0,0,0,1066,0,Yes
0,0,0,0,0,3,0,0,0,0,0,0,0,1077,0,No
2,2,7,0,0,3,0,0,0,0,0,0,0,534,0,No
2,4,12,0,0,4,0,0,0,0,0,0,0,586,0,No
2,3,9,0,0,5,0,0,0,0,0,0,0,632,0,No
4,13,24,0,0,5,0,0,0,0,0,0,0,544,0,No
2,4,8,0,0,3,0,0,0,0,0,0,0,544,0,No
1,9,25,0,2,4,0,0,0,0,0,0,0,537,0,No
1,2,1,0,0,3,0,0,0,0,0,0,0,607,0,No
1,7,18,0,0,5,0,0,0,0,0,0,0,607,0,No
1,1,1,0,0,3,0,0,0,0,0,0,0,429,0,No
0,0,0,0,0,4,0,0,0,0,0,0,0,1038,0,No
6,10,21,0,0,3,0,0,0,0,0,0,0,432,0,No
4,4,7,0,0,3,0,0,0,0,0,0,0,630,0,No
4,10,27,0,2,5,0,0,0,0,0,0,0,527,0,No
2,13,11,0,0,3,0,0,0,0,0,0,0,432,0,No
0,0,0,0,0,3,0,0,0,0,0,0,0,638,0,No
3,5,12,0,0,4,0,0,0,0,0,0,0,506,0,No
13,2,18,0,0,3,0,0,0,0,0,0,0,530,0,No
5,0,5,0,0,3,0,0,0,0,0,0,0,1013,0,No
7,1,17,0,1,4,0,0,0,0,0,0,0,776,0,No
6,1,16,0,0,1,0,0,0,0,0,0,0,63,0,No
4,1,14,0,0,1,0,0,0,0,0,0,0,63,0,No
2,0,6,0,0,4,0,0,0,0,0,0,0,461,0,No
18,8,18,0,1,4,0,0,0,0,0,0,0,562,0,No
1,0,1,0,0,3,0,0,0,0,0,0,0,638,0,No
1,0,1,0,0,3,0,0,0,0,0,0,0,638,0,No
10,4,14,0,0,4,0,0,0,0,0,0,0,539,0,No
16,2,25,0,0,4,0,0,0,0,0,0,0,539,0,No
20,7,35,0,0,4,0,0,0,0,0,0,0,539,0,No
6,0,19,22,1,3,15,15,8,8,1,1,1,503,0,No
5,0,17,0,0,3,0,0,0,0,0,0,0,503,0,No
4,0,5,0,0,2,0,0,0,0,0,0,0,95,0,No
15,15,35,0,2,4,0,0,0,0,0,0,0,111,0,No
0,0,0,0,0,5,0,0,0,0,0,0,0,649,0,No
0,0,0,0,0,4,0,0,0,0,0,0,0,1049,0,No
5,1,6,0,0,4,0,0,0,0,0,0,0,1088,0,No
29,1,51,0,0,4,0,0,0,0,0,0,0,935,0,No
4,2,4,0,0,2,0,0,0,0,0,0,0,115,0,No
5,1,5,0,0,3,0,0,0,0,0,0,0,110,0,No
6,1,6,0,0,3,0,0,0,0,0,0,0,110,0,No
20,0,29,0,0,6,0,0,0,0,0,0,0,1055,0,No
9,1,16,0,0,1,0,0,0,0,0,0,0,47,0,No
16,1,18,0,0,5,0,0,0,0,0,0,0,538,0,No
6,1,9,0,0,2,0,0,0,0,0,0,0,95,0,No
30,0,37,0,0,5,0,0,0,0,0,0,0,1017,0,No
10,3,13,0,0,5,0,0,0,0,0,0,0,535,0,No
25,0,31,0,0,5,0,0,0,0,0,0,0,1055,0,No
0,1,0,0,0,4,0,0,0,0,0,0,0,1049,0,No
1,0,1,0,0,4,0,0,0,0,0,0,0,1049,0,No
1,0,1,0,0,5,0,0,0,0,0,0,0,1049,0,No
15,1,17,0,0,5,0,0,0,0,0,0,0,1088,0,No
7,1,7,0,0,4,0,0,0,0,0,0,0,1088,0,No
1,0,1,0,0,4,0,0,0,0,0,0,0,1049,0,No
2,0,2,9,1,3,3,3,-3,0,2,3,19,375,0,No
1,0,1,0,0,4,0,0,0,0,0,0,0,1049,0,No
2,0,2,0,0,4,0,0,0,0,0,0,0,1049,0,No
2,0,3,0,0,4,0,0,0,0,0,0,0,1049,0,No
1,0,1,0,0,4,0,0,0,0,0,0,0,1049,0,No
1,0,1,0,0,4,0,0,0,0,0,0,0,1049,0,No
2,4,2,0,1,4,0,0,0,0,0,0,0,649,0,No
3,0,6,0,1,4,0,0,0,0,0,0,0,1033,0,No
1,0,1,0,0,4,0,0,0,0,0,0,0,649,0,No
17,10,34,0,1,4,0,0,0,0,0,0,0,100,0,No
1,1,8,0,0,3,0,0,0,0,0,0,0,912,0,No
3,0,3,0,0,2,0,0,0,0,0,0,0,87,0,No
7,2,12,0,0,4,0,0,0,0,0,0,0,808,0,No
1,1,4,0,0,3,0,0,0,0,0,0,0,1088,0,No
7,0,12,0,0,5,0,0,0,0,0,0,0,648,0,No
8,2,28,0,0,3,0,0,0,0,0,0,0,430,0,No
3,6,8,0,1,6,0,0,0,0,0,0,0,648,0,No
6,6,7,0,0,1,0,0,0,0,0,0,0,47,0,No
4,6,12,0,2,6,0,0,0,0,0,0,0,1024,0,No
11,3,16,0,3,6,0,0,0,0,0,0,0,997,0,No
0,2,0,0,0,5,0,0,0,0,0,0,0,1047,0,No
5,5,9,0,3,7,0,0,0,0,0,0,0,997,0,No
4,5,6,0,0,4,0,0,0,0,0,0,0,181,0,No
4,6,12,0,1,5,0,0,0,0,0,0,0,718,0,No
0,2,0,0,0,5,0,0,0,0,0,0,0,1049,0,No
17,9,23,0,4,7,0,0,0,0,0,0,0,541,0,No
8,7,9,0,0,2,0,0,0,0,0,0,0,47,0,Yes
14,14,33,0,1,7,0,0,0,0,0,0,0,605,0,No
7,10,11,33,0,7,14,14,-5,0,4,13,15,443,0,No
5,5,15,0,0,7,0,0,0,0,0,0,0,557,0,No
11,11,15,0,2,4,0,0,0,0,0,0,0,129,0,No
6,6,11,0,0,7,0,0,0,0,0,0,0,557,0,No
14,12,28,20,3,6,16,16,12,12,4,13,15,1024,0,No
0,0,0,0,0,4,0,0,0,0,0,0,0,1049,0,No
7,7,16,0,3,7,0,0,0,0,0,0,0,605,0,Yes
4,1,4,0,1,5,0,0,0,0,0,0,0,538,0,No
5,0,16,0,1,6,0,0,0,0,0,0,0,997,0,No
5,0,5,0,2,6,0,0,0,0,0,0,0,997,0,No
6,1,32,0,0,6,0,0,0,0,0,0,0,605,0,No
19,0,35,0,2,6,0,0,0,0,0,0,0,605,0,No
9,0,30,0,0,3,0,0,0,0,0,0,0,418,0,No
11,8,86,0,1,5,0,0,0,0,0,0,0,187,0,No
5,3,11,0,1,3,0,0,0,0,0,0,0,104,0,No
6,23,25,0,0,7,0,0,0,0,0,0,0,538,0,Yes
6,0,15,0,2,5,0,0,0,0,0,0,0,1088,0,No
9,1,9,0,0,4,0,0,0,0,0,0,0,1045,0,No
8,1,8,0,0,5,0,0,0,0,0,0,0,1045,0,No
44,7,49,0,0,6,0,0,0,0,0,0,0,1033,0,No
13,2,27,0,0,4,0,0,0,0,0,0,0,443,0,No
8,3,19,0,0,2,0,0,0,0,0,0,0,168,0,No
54,10,94,10,2,8,7,7,4,4,1,5,5,1042,0,No
10,3,23,0,0,2,0,0,0,0,0,0,0,168,0,No
17,8,17,6,0,6,3,3,0,0,1,2,2,1088,0,Yes
5,3,9,0,0,4,0,0,0,0,0,0,0,1077,0,No
2,2,7,14,1,5,8,8,2,2,2,3,19,545,0,No
2,3,9,10,1,9,6,6,2,2,2,3,19,643,0,No
2,2,4,7,1,3,4,4,1,1,2,3,19,185,0,No
4,13,24,10,1,7,6,6,2,2,2,3,19,555,0,No
2,4,8,10,1,5,6,6,2,2,2,3,19,555,0,No
1,2,1,0,0,4,0,0,0,0,0,0,0,618,0,No
1,7,18,0,0,5,0,0,0,0,0,0,0,618,0,No
0,0,0,0,0,1,0,0,0,0,0,0,0,187,0,No
2,5,10,0,0,3,0,0,0,0,0,0,0,188,0,No
4,4,7,0,0,4,0,0,0,0,0,0,0,641,0,No
3,5,12,0,0,4,0,0,0,0,0,0,0,517,0,No
2,12,11,0,0,4,0,0,0,0,0,0,0,443,0,No
0,0,0,0,0,3,0,0,0,0,0,0,0,649,0,No
9,29,29,0,1,8,0,0,0,0,0,0,0,1026,0,Yes
7,11,23,0,0,5,0,0,0,0,0,0,0,443,0,No
7,25,50,0,0,8,0,0,0,0,0,0,0,926,0,Yes
3,0,18,0,1,3,0,0,0,0,0,0,0,100,0,No
9,12,36,0,1,5,0,0,0,0,0,0,0,100,0,No
5,0,5,0,0,4,0,0,0,0,0,0,0,1024,0,No
4,5,10,0,0,1,0,0,0,0,0,0,0,87,0,No
6,23,65,0,1,6,0,0,0,0,0,0,0,187,0,Yes
8,1,18,0,0,5,0,0,0,0,0,0,0,787,0,No
2,0,6,0,0,4,0,0,0,0,0,0,0,472,0,No
10,7,10,0,1,7,0,0,0,0,0,0,0,573,0,No
8,4,12,0,0,5,0,0,0,0,0,0,0,550,0,No
17,2,26,0,0,5,0,0,0,0,0,0,0,550,0,No
21,7,39,0,0,5,0,0,0,0,0,0,0,550,0,Yes
1,0,1,0,0,3,0,0,0,0,0,0,0,649,0,No
1,0,1,0,0,3,0,0,0,0,0,0,0,649,0,No
6,0,19,0,1,3,0,0,0,0,0,0,0,546,0,No
5,0,17,0,0,3,0,0,0,0,0,0,0,546,0,No
4,0,5,0,0,2,0,0,0,0,0,0,0,138,0,No
15,15,35,0,2,4,0,0,0,0,0,0,0,154,0,No
0,0,0,18,0,6,9,5,0,5,9,24,135,692,0,No
0,0,0,0,0,4,0,0,0,0,0,0,0,1092,0,No
5,1,6,0,0,4,0,0,0,0,0,0,0,1131,0,No
29,1,51,2,0,5,2,2,2,2,1,4,18,978,0,No
4,2,4,0,0,2,0,0,0,0,0,0,0,158,0,No
6,1,6,0,0,3,0,0,0,0,0,0,0,153,0,No
20,0,29,0,0,6,0,0,0,0,0,0,0,1098,0,No
9,1,16,33,0,2,20,20,7,7,2,4,5,90,0,No
16,1,18,0,0,5,0,0,0,0,0,0,0,581,0,No
6,1,9,0,0,2,0,0,0,0,0,0,0,138,0,No
30,0,37,0,0,5,0,0,0,0,0,0,0,1060,0,No
10,3,13,0,0,5,0,0,0,0,0,0,0,578,0,No
25,0,31,0,0,5,0,0,0,0,0,0,0,1098,0,No
0,1,0,0,0,4,0,0,0,0,0,0,0,1092,0,No
1,0,1,2,0,5,1,1,0,0,1,4,18,1092,0,No
1,0,1,2,0,6,1,1,0,0,1,4,18,1092,0,No
15,1,17,0,0,5,0,0,0,0,0,0,0,1131,0,No
7,1,7,0,0,4,0,0,0,0,0,0,0,1131,0,No
1,0,1,2,0,5,1,1,0,0,1,4,18,1092,0,No
2,0,2,0,1,3,0,0,0,0,0,0,0,418,0,No
1,0,1,2,0,5,1,1,0,0,1,4,18,1092,0,No
2,0,2,2,0,5,1,1,0,0,1,4,18,1092,0,No
2,0,3,2,0,5,1,1,0,0,1,4,18,1092,0,No
1,0,1,2,0,5,1,1,0,0,1,4,18,1092,0,No
1,0,1,2,0,5,1,1,0,0,1,4,18,1092,0,No
2,4,2,0,1,4,0,0,0,0,0,0,0,692,0,No
3,0,6,0,1,4,0,0,0,0,0,0,0,1076,0,No
1,0,1,2,0,5,1,1,0,0,1,4,18,692,0,No
17,10,34,0,1,4,0,0,0,0,0,0,0,143,0,No
1,1,8,0,0,3,0,0,0,0,0,0,0,955,0,No
3,0,3,0,0,2,0,0,0,0,0,0,0,130,0,No
7,2,12,0,0,4,0,0,0,0,0,0,0,851,0,No
1,1,4,0,0,3,0,0,0,0,0,0,0,1131,0,No
7,0,12,0,0,5,0,0,0,0,0,0,0,691,0,No
3,7,8,11,1,6,6,4,1,1,3,9,84,691,0,No
6,6,7,24,0,2,13,10,2,4,6,14,74,90,0,No
4,7,12,26,2,6,12,6,-2,1,5,16,124,1067,0,No
11,3,16,6,3,6,3,3,0,0,1,4,44,1040,0,No
0,2,0,0,0,5,0,0,0,0,0,0,0,1090,0,No
5,6,9,12,3,7,7,3,2,1,4,11,90,1040,0,No
4,5,6,0,0,4,0,0,0,0,0,0,0,224,0,No
3,5,5,12,0,4,4,3,-4,0,2,6,49,224,0,No
4,7,12,25,1,6,11,6,-3,1,5,16,124,761,0,No
0,2,0,0,0,5,0,0,0,0,0,0,0,1092,0,No
17,9,23,8,4,7,4,2,0,1,6,18,117,584,0,No
8,8,9,38,0,3,21,19,4,4,5,11,51,90,0,Yes
14,15,33,8,1,7,5,2,2,1,7,19,95,648,0,No
7,11,11,11,0,7,6,3,1,1,4,13,77,486,0,No
5,5,15,0,0,7,0,0,0,0,0,0,0,600,0,No
11,12,15,5,2,4,3,3,1,1,1,4,44,172,0,No
6,7,11,21,0,7,13,10,5,4,4,13,77,600,0,No
6,5,8,37,1,6,29,29,21,21,1,2,5,1092,0,No
14,12,28,0,3,6,0,0,0,0,0,0,0,1067,0,No
0,0,0,0,0,4,0,0,0,0,0,0,0,1092,0,No
7,7,16,4,3,7,1,1,-2,0,2,7,40,648,0,Yes
4,1,4,0,1,5,0,0,0,0,0,0,0,581,0,No
5,1,16,7,1,7,4,2,1,1,4,13,77,1040,0,No
5,1,5,7,2,7,4,2,1,1,4,13,77,1040,0,No
6,1,32,0,0,6,0,0,0,0,0,0,0,648,0,No
19,0,35,0,2,6,0,0,0,0,0,0,0,648,0,No
9,0,30,0,0,3,0,0,0,0,0,0,0,461,0,No
11,8,86,0,1,5,0,0,0,0,0,0,0,230,0,No
5,3,11,0,1,3,0,0,0,0,0,0,0,147,0,No
6,23,25,0,0,7,0,0,0,0,0,0,0,581,0,Yes
6,0,15,0,2,5,0,0,0,0,0,0,0,1131,0,No
9,1,9,0,0,4,0,0,0,0,0,0,0,1088,0,No
8,1,8,0,0,5,0,0,0,0,0,0,0,1088,0,No
44,7,49,0,0,6,0,0,0,0,0,0,0,1076,0,No
13,2,27,0,0,4,0,0,0,0,0,0,0,486,0,No
8,3,19,0,0,2,0,0,0,0,0,0,0,211,0,No
54,11,94,6,2,8,4,4,2,2,1,3,4,1085,0,No
10,3,23,0,0,2,0,0,0,0,0,0,0,211,0,No
17,8,17,0,0,6,0,0,0,0,0,0,0,1131,0,Yes
5,3,9,0,0,4,0,0,0,0,0,0,0,1120,0,No
2,2,7,0,1,5,0,0,0,0,0,0,0,588,0,No
2,3,9,0,1,9,0,0,0,0,0,0,0,686,0,No
2,2,4,0,1,3,0,0,0,0,0,0,0,228,0,No
4,13,24,0,1,7,0,0,0,0,0,0,0,598,0,No
2,4,8,0,1,5,0,0,0,0,0,0,0,598,0,No
1,2,1,0,0,4,0,0,0,0,0,0,0,661,0,No
1,7,18,0,0,5,0,0,0,0,0,0,0,661,0,No
0,0,0,0,0,1,0,0,0,0,0,0,0,230,0,No
2,5,10,0,0,3,0,0,0,0,0,0,0,231,0,No
4,4,7,0,0,4,0,0,0,0,0,0,0,684,0,Yes
3,5,12,0,0,4,0,0,0,0,0,0,0,560,0,No
2,12,11,0,0,4,0,0,0,0,0,0,0,486,0,No
0,0,0,0,0,3,0,0,0,0,0,0,0,692,0,No
9,30,30,7,2,8,6,6,5,5,1,1,1,1069,0,No
7,11,23,0,0,5,0,0,0,0,0,0,0,486,0,No
7,25,50,0,0,8,0,0,0,0,0,0,0,969,0,Yes
3,0,18,0,1,3,0,0,0,0,0,0,0,143,0,No
9,12,36,0,1,5,0,0,0,0,0,0,0,143,0,No
5,0,5,0,0,4,0,0,0,0,0,0,0,1067,0,No
4,5,10,0,0,1,0,0,0,0,0,0,0,130,0,No
6,23,67,8,2,6,6,6,4,4,1,1,1,230,0,No
8,1,18,0,0,5,0,0,0,0,0,0,0,830,0,No
1,0,2,24,0,5,12,12,0,0,1,3,4,1092,0,No
2,0,6,0,0,4,0,0,0,0,0,0,0,515,0,No
10,7,10,0,1,7,0,0,0,0,0,0,0,616,0,No
8,4,12,0,0,5,0,0,0,0,0,0,0,593,0,No
17,2,26,0,0,5,0,0,0,0,0,0,0,593,0,No
21,7,39,0,0,5,0,0,0,0,0,0,0,593,0,Yes
1,0,1,0,0,3,0,0,0,0,0,0,0,692,0,No
1,0,1,0,0,3,0,0,0,0,0,0,0,692,0,No
6,0,19,0,1,3,0,0,0,0,0,0,0,577,0,No
5,0,17,0,0,3,0,0,0,0,0,0,0,577,0,No
4,0,5,0,0,2,0,0,0,0,0,0,0,169,0,No
15,15,35,0,2,4,0,0,0,0,0,0,0,185,0,No
0,0,0,0,0,6,0,0,0,0,0,0,0,723,0,No
0,0,0,0,0,4,0,0,0,0,0,0,0,1123,0,No
5,1,6,0,0,4,0,0,0,0,0,0,0,1162,0,No
29,1,51,0,0,5,0,0,0,0,0,0,0,1009,0,No
4,2,4,0,0,2,0,0,0,0,0,0,0,189,0,No
6,1,6,0,0,3,0,0,0,0,0,0,0,184,0,No
20,0,29,0,0,6,0,0,0,0,0,0,0,1129,0,No
9,1,16,0,0,2,0,0,0,0,0,0,0,121,0,No
16,1,18,0,0,5,0,0,0,0,0,0,0,612,0,No
6,1,9,0,0,2,0,0,0,0,0,0,0,169,0,No
30,0,37,0,0,5,0,0,0,0,0,0,0,1091,0,No
10,3,13,0,0,5,0,0,0,0,0,0,0,609,0,No
25,0,31,0,0,5,0,0,0,0,0,0,0,1129,0,No
0,1,0,0,0,4,0,0,0,0,0,0,0,1123,0,No
1,0,1,0,0,5,0,0,0,0,0,0,0,1123,0,No
1,0,1,0,0,6,0,0,0,0,0,0,0,1123,0,No
15,1,17,0,0,5,0,0,0,0,0,0,0,1162,0,No
7,1,7,0,0,4,0,0,0,0,0,0,0,1162,0,No
1,0,1,0,0,5,0,0,0,0,0,0,0,1123,0,No
2,0,2,0,1,3,0,0,0,0,0,0,0,449,0,Yes
1,0,1,0,0,5,0,0,0,0,0,0,0,1123,0,No
2,0,2,0,0,5,0,0,0,0,0,0,0,1123,0,No
2,0,3,0,0,5,0,0,0,0,0,0,0,1123,0,No
1,0,1,0,0,5,0,0,0,0,0,0,0,1123,0,No
1,0,1,0,0,5,0,0,0,0,0,0,0,1123,0,No
2,4,2,0,1,4,0,0,0,0,0,0,0,723,0,No
3,0,6,0,1,4,0,0,0,0,0,0,0,1107,0,Yes
1,0,1,0,0,5,0,0,0,0,0,0,0,723,0,No
17,10,34,0,1,4,0,0,0,0,0,0,0,174,0,No
1,1,8,0,0,3,0,0,0,0,0,0,0,986,0,No
3,0,3,0,0,2,0,0,0,0,0,0,0,161,0,No
7,2,12,0,0,4,0,0,0,0,0,0,0,882,0,No
1,1,4,0,0,3,0,0,0,0,0,0,0,1162,0,No
7,0,12,0,0,5,0,0,0,0,0,0,0,722,0,No
3,7,8,0,1,6,0,0,0,0,0,0,0,722,0,No
6,6,7,0,0,2,0,0,0,0,0,0,0,121,0,No
4,7,12,0,2,6,0,0,0,0,0,0,0,1098,0,No
11,3,16,0,3,6,0,0,0,0,0,0,0,1071,0,No
0,2,0,0,0,5,0,0,0,0,0,0,0,1121,0,No
5,6,9,0,3,7,0,0,0,0,0,0,0,1071,0,No
4,5,6,0,0,4,0,0,0,0,0,0,0,255,0,No
3,5,5,0,0,4,0,0,0,0,0,0,0,255,0,No
4,7,12,0,1,6,0,0,0,0,0,0,0,792,0,No
17,9,23,0,4,7,0,0,0,0,0,0,0,615,0,No
8,8,9,0,0,3,0,0,0,0,0,0,0,121,0,Yes
14,15,33,0,1,7,0,0,0,0,0,0,0,679,0,No
7,11,11,0,0,7,0,0,0,0,0,0,0,517,0,No
5,5,15,0,0,7,0,0,0,0,0,0,0,631,0,No
11,12,15,0,2,4,0,0,0,0,0,0,0,203,0,No
6,7,11,0,0,7,0,0,0,0,0,0,0,631,0,No
6,5,8,0,1,6,0,0,0,0,0,0,0,1123,0,No
14,12,28,0,3,6,0,0,0,0,0,0,0,1098,0,No
0,0,0,2,0,5,1,1,0,0,1,3,5,1123,0,No
7,7,16,8,3,7,5,5,2,2,1,6,10,679,0,Yes
4,1,4,0,1,5,0,0,0,0,0,0,0,612,0,No
5,1,16,0,1,7,0,0,0,0,0,0,0,1071,0,No
5,1,5,0,2,7,0,0,0,0,0,0,0,1071,0,No
6,1,32,0,0,6,0,0,0,0,0,0,0,679,0,No
19,0,35,0,2,6,0,0,0,0,0,0,0,679,0,No
9,0,30,0,0,3,0,0,0,0,0,0,0,492,0,No
11,8,86,0,1,5,0,0,0,0,0,0,0,261,0,No
5,3,11,0,1,3,0,0,0,0,0,0,0,178,0,No
6,23,25,3,0,7,0,0,-3,0,2,4,8,612,0,Yes
6,0,15,0,2,5,0,0,0,0,0,0,0,1162,0,No
9,1,9,0,0,4,0,0,0,0,0,0,0,1119,0,No
8,1,8,0,0,5,0,0,0,0,0,0,0,1119,0,Yes
44,7,49,0,0,6,0,0,0,0,0,0,0,1107,0,No
13,2,27,0,0,4,0,0,0,0,0,0,0,517,0,No
8,3,19,0,0,2,0,0,0,0,0,0,0,242,0,No
54,11,94,0,2,8,0,0,0,0,0,0,0,1116,0,No
10,3,23,0,0,2,0,0,0,0,0,0,0,242,0,No
17,8,17,0,0,6,0,0,0,0,0,0,0,1162,0,Yes
5,3,9,0,0,4,0,0,0,0,0,0,0,1151,0,No
2,2,7,0,1,5,0,0,0,0,0,0,0,619,0,Yes
2,3,9,0,1,9,0,0,0,0,0,0,0,717,0,Yes
2,2,4,0,1,3,0,0,0,0,0,0,0,259,0,Yes
4,13,24,0,1,7,0,0,0,0,0,0,0,629,0,Yes
2,4,8,0,1,5,0,0,0,0,0,0,0,629,0,Yes
1,2,1,0,0,4,0,0,0,0,0,0,0,692,0,No
1,7,18,0,0,5,0,0,0,0,0,0,0,692,0,No
0,0,0,0,0,1,0,0,0,0,0,0,0,261,0,No
2,5,10,0,0,3,0,0,0,0,0,0,0,262,0,No
4,4,7,14,1,4,9,9,4,4,1,3,7,715,0,No
3,5,12,0,0,4,0,0,0,0,0,0,0,591,0,No
2,12,11,0,0,4,0,0,0,0,0,0,0,517,0,No
0,0,0,0,0,3,0,0,0,0,0,0,0,723,0,No
9,30,30,0,2,8,0,0,0,0,0,0,0,1100,0,No
7,11,23,0,0,5,0,0,0,0,0,0,0,517,0,No
7,25,50,0,0,8,0,0,0,0,0,0,0,1000,0,Yes
3,0,18,0,1,3,0,0,0,0,0,0,0,174,0,No
9,12,36,0,1,5,0,0,0,0,0,0,0,174,0,Yes
5,0,5,0,0,4,0,0,0,0,0,0,0,1098,0,No
4,5,10,0,0,1,0,0,0,0,0,0,0,161,0,No
6,23,67,0,2,6,0,0,0,0,0,0,0,261,0,Yes
8,1,18,0,0,5,0,0,0,0,0,0,0,861,0,No
1,0,2,0,0,5,0,0,0,0,0,0,0,1123,0,No
2,0,6,0,0,4,0,0,0,0,0,0,0,546,0,No
10,7,10,0,1,7,0,0,0,0,0,0,0,647,0,No
17,2,26,8,0,5,4,4,0,0,2,4,8,624,0,No
22,7,40,5,0,5,5,5,5,5,2,4,8,624,0,Yes
1,0,1,0,0,3,0,0,0,0,0,0,0,723,0,No
1,0,1,0,0,3,0,0,0,0,0,0,0,723,0,No
6,0,19,0,1,3,0,0,0,0,0,0,0,654,0,No
5,0,17,0,0,3,0,0,0,0,0,0,0,654,0,No
4,0,5,0,0,2,0,0,0,0,0,0,0,246,0,No
15,15,35,0,2,4,0,0,0,0,0,0,0,262,0,No
0,0,0,0,0,6,0,0,0,0,0,0,0,800,0,No
0,0,0,0,0,4,0,0,0,0,0,0,0,1200,0,No
5,1,6,0,0,4,0,0,0,0,0,0,0,1239,0,No
29,1,51,0,0,5,0,0,0,0,0,0,0,1086,0,No
4,2,4,0,0,2,0,0,0,0,0,0,0,266,0,Yes
6,1,6,0,0,3,0,0,0,0,0,0,0,261,0,No
20,0,29,0,0,6,0,0,0,0,0,0,0,1206,0,No
9,1,16,0,0,2,0,0,0,0,0,0,0,198,0,No
16,1,18,0,0,5,0,0,0,0,0,0,0,689,0,No
6,1,9,0,0,2,0,0,0,0,0,0,0,246,0,No
30,0,37,2,1,5,2,2,2,2,2,2,2,1168,0,No
10,3,13,0,0,5,0,0,0,0,0,0,0,686,0,No
25,0,31,0,0,5,0,0,0,0,0,0,0,1206,0,No
0,1,0,0,0,4,0,0,0,0,0,0,0,1200,0,No
1,0,1,0,0,5,0,0,0,0,0,0,0,1200,0,No
1,0,1,0,0,6,0,0,0,0,0,0,0,1200,0,No
15,1,17,0,0,5,0,0,0,0,0,0,0,1239,0,No
7,1,7,0,0,4,0,0,0,0,0,0,0,1239,0,No
1,0,1,0,0,5,0,0,0,0,0,0,0,1200,0,No
2,0,2,6,2,3,3,3,0,0,2,11,47,526,0,No
1,0,1,0,0,5,0,0,0,0,0,0,0,1200,0,No
2,0,2,0,0,5,0,0,0,0,0,0,0,1200,0,No
2,0,3,0,0,5,0,0,0,0,0,0,0,1200,0,No
1,0,1,0,0,5,0,0,0,0,0,0,0,1200,0,No
1,0,1,0,0,5,0,0,0,0,0,0,0,1200,0,Yes
2,4,2,0,1,4,0,0,0,0,0,0,0,800,0,No
3,0,6,22,2,4,11,11,0,1,4,15,51,1184,0,No
1,0,1,0,0,5,0,0,0,0,0,0,0,800,0,No
17,10,34,0,1,4,0,0,0,0,0,0,0,251,0,Yes
1,1,8,0,0,3,0,0,0,0,0,0,0,1063,0,No
3,0,3,0,0,2,0,0,0,0,0,0,0,238,0,No
7,2,12,0,0,4,0,0,0,0,0,0,0,959,0,No
1,1,4,0,0,3,0,0,0,0,0,0,0,1239,0,No
7,0,12,0,0,5,0,0,0,0,0,0,0,799,0,No
3,7,8,0,1,6,0,0,0,0,0,0,0,799,0,No
6,6,7,0,0,2,0,0,0,0,0,0,0,198,0,No
4,7,12,0,2,6,0,0,0,0,0,0,0,1175,0,No
11,3,16,0,3,6,0,0,0,0,0,0,0,1148,0,No
0,2,0,0,0,5,0,0,0,0,0,0,0,1198,0,No
5,6,9,0,3,7,0,0,0,0,0,0,0,1148,0,No
4,5,6,0,0,4,0,0,0,0,0,0,0,332,0,No
3,5,5,0,0,4,0,0,0,0,0,0,0,332,0,No
4,7,12,0,1,6,0,0,0,0,0,0,0,869,0,No
17,9,23,0,4,7,0,0,0,0,0,0,0,692,0,No
8,8,9,0,0,3,0,0,0,0,0,0,0,198,0,Yes
14,15,34,19,1,7,14,14,9,9,3,5,7,756,0,No
7,11,11,0,0,7,0,0,0,0,0,0,0,594,0,No
5,5,15,0,0,7,0,0,0,0,0,0,0,708,0,No
11,12,15,0,2,4,0,0,0,0,0,0,0,280,0,No
6,7,11,0,0,7,0,0,0,0,0,0,0,708,0,No
6,5,8,0,1,6,0,0,0,0,0,0,0,1200,0,No
14,12,28,0,3,6,0,0,0,0,0,0,0,1175,0,No
0,0,0,0,0,5,0,0,0,0,0,0,0,1200,0,No
7,7,16,0,3,7,0,0,0,0,0,0,0,756,0,No
4,1,4,0,1,5,0,0,0,0,0,0,0,689,0,No
5,1,16,0,1,7,0,0,0,0,0,0,0,1148,0,No
5,1,5,0,2,7,0,0,0,0,0,0,0,1148,0,No
6,1,32,0,0,6,0,0,0,0,0,0,0,756,0,No
19,0,35,0,2,6,0,0,0,0,0,0,0,756,0,No
9,0,30,0,0,3,0,0,0,0,0,0,0,569,0,No
0,1,0,178,1,2,74,74,-30,0,1,5,11,561,0,No
11,8,86,0,1,5,0,0,0,0,0,0,0,338,0,No
5,3,11,0,1,3,0,0,0,0,0,0,0,255,0,No
7,23,31,41,0,7,34,30,27,24,4,11,15,689,0,Yes
6,0,15,0,2,5,0,0,0,0,0,0,0,1239,0,No
9,2,9,2,1,4,2,2,2,2,2,11,47,1196,0,No
8,2,8,5,1,5,3,3,1,1,2,11,47,1196,0,No
44,7,49,0,0,6,0,0,0,0,0,0,0,1184,0,No
13,2,27,0,0,4,0,0,0,0,0,0,0,594,0,No
8,3,19,0,0,2,0,0,0,0,0,0,0,319,0,No
54,11,94,0,2,8,0,0,0,0,0,0,0,1193,0,Yes
10,3,23,0,0,2,0,0,0,0,0,0,0,319,0,No
17,8,17,0,0,6,0,0,0,0,0,0,0,1239,0,Yes
5,3,9,0,0,4,0,0,0,0,0,0,0,1228,0,No
1,2,7,8,2,5,1,1,-6,0,2,11,47,1035,0,No
1,3,2,11,2,3,2,2,-7,0,2,11,47,336,0,No
1,2,2,42,3,5,11,8,-20,0,3,12,49,1035,0,No
1,4,9,9,2,5,1,1,-7,0,2,11,47,1035,0,No
1,3,5,8,2,5,1,1,-6,0,2,11,47,800,0,No
1,2,7,10,2,8,2,2,-6,0,2,11,47,800,0,No
1,2,1,0,0,4,0,0,0,0,0,0,0,769,0,No
1,7,18,0,0,5,0,0,0,0,0,0,0,769,0,No
0,0,0,0,0,1,0,0,0,0,0,0,0,338,0,No
2,5,10,0,0,3,0,0,0,0,0,0,0,339,0,Yes
4,4,7,0,1,4,0,0,0,0,0,0,0,792,0,Yes
3,5,12,0,0,4,0,0,0,0,0,0,0,668,0,No
2,12,11,0,0,4,0,0,0,0,0,0,0,594,0,No
0,0,0,0,0,3,0,0,0,0,0,0,0,800,0,No
9,30,30,0,2,8,0,0,0,0,0,0,0,1177,0,Yes
7,11,23,0,0,5,0,0,0,0,0,0,0,594,0,No
7,25,50,0,0,8,0,0,0,0,0,0,0,1077,0,Yes
3,0,18,0,1,3,0,0,0,0,0,0,0,251,0,No
9,11,35,6,2,6,1,1,-4,0,4,15,51,251,0,No
5,0,5,0,0,4,0,0,0,0,0,0,0,1175,0,No
4,5,10,0,0,1,0,0,0,0,0,0,0,238,0,Yes
6,23,67,0,2,6,0,0,0,0,0,0,0,338,0,Yes
8,1,18,0,0,5,0,0,0,0,0,0,0,938,0,No
1,0,2,0,0,5,0,0,0,0,0,0,0,1200,0,No
2,0,6,0,0,4,0,0,0,0,0,0,0,623,0,No
10,7,10,0,1,7,0,0,0,0,0,0,0,724,0,No
17,2,26,0,0,5,0,0,0,0,0,0,0,701,0,No
22,7,40,0,0,5,0,0,0,0,0,0,0,701,0,Yes
1,0,1,0,0,3,0,0,0,0,0,0,0,800,0,No
1,0,1,0,0,3,0,0,0,0,0,0,0,800,0,No
6,0,19,0,1,3,0,0,0,0,0,0,0,716,0,No
5,0,17,0,0,3,0,0,0,0,0,0,0,716,0,No
4,0,5,0,0,2,0,0,0,0,0,0,0,308,0,No
15,15,35,0,2,4,0,0,0,0,0,0,0,324,0,No
0,0,0,0,0,6,0,0,0,0,0,0,0,862,0,No
0,0,0,0,0,4,0,0,0,0,0,0,0,1262,0,No
5,1,6,0,0,4,0,0,0,0,0,0,0,1301,0,No
29,1,51,0,0,5,0,0,0,0,0,0,0,1148,0,No
5,3,5,13,1,3,9,6,5,3,6,34,71,328,0,No
6,1,6,0,0,3,0,0,0,0,0,0,0,323,0,No
20,0,29,22,0,6,11,8,0,5,3,15,24,1268,0,No
9,1,16,0,0,2,0,0,0,0,0,0,0,260,0,No
16,1,18,0,0,5,0,0,0,0,0,0,0,751,0,No
6,1,9,0,0,2,0,0,0,0,0,0,0,308,0,No
30,0,37,0,1,5,0,0,0,0,0,0,0,1230,0,No
10,3,13,0,0,5,0,0,0,0,0,0,0,748,0,No
25,0,31,4,0,5,2,2,0,0,4,22,49,1268,0,No
0,1,0,0,0,4,0,0,0,0,0,0,0,1262,0,No
1,0,1,0,0,5,0,0,0,0,0,0,0,1262,0,No
1,0,1,248,2,5,21,18,-206,1,12,71,143,1301,0,No
1,0,1,0,0,6,0,0,0,0,0,0,0,1262,0,No
15,1,17,0,0,5,0,0,0,0,0,0,0,1301,0,No
7,1,7,0,0,4,0,0,0,0,0,0,0,1301,0,No
1,0,1,0,0,5,0,0,0,0,0,0,0,1262,0,No
2,0,2,0,2,3,0,0,0,0,0,0,0,588,0,No
1,0,1,0,0,5,0,0,0,0,0,0,0,1262,0,No
2,0,2,0,0,5,0,0,0,0,0,0,0,1262,0,No
2,0,3,0,0,5,0,0,0,0,0,0,0,1262,0,No
1,0,1,0,0,5,0,0,0,0,0,0,0,1262,0,No
1,0,1,0,0,5,0,0,0,0,0,0,0,1262,0,No
2,4,2,0,1,4,0,0,0,0,0,0,0,862,0,No
3,0,6,1,3,4,1,1,1,1,2,2,2,1246,0,Yes
1,0,1,0,0,5,0,0,0,0,0,0,0,862,0,No
1,1,8,0,0,3,0,0,0,0,0,0,0,1125,0,Yes
3,0,3,0,0,2,0,0,0,0,0,0,0,300,0,No
7,2,12,0,0,4,0,0,0,0,0,0,0,1021,0,No
1,1,4,0,0,3,0,0,0,0,0,0,0,1301,0,No
7,0,12,2,0,5,1,1,0,0,4,22,49,861,0,No
3,7,8,0,1,6,0,0,0,0,0,0,0,861,0,No
6,6,7,0,0,2,0,0,0,0,0,0,0,260,0,Yes
4,7,12,0,2,6,0,0,0,0,0,0,0,1237,0,No
11,3,16,2,3,6,1,1,0,0,4,22,49,1210,0,No
0,2,0,0,0,5,0,0,0,0,0,0,0,1260,0,No
5,6,9,0,3,7,0,0,0,0,0,0,0,1210,0,Yes
4,5,6,0,0,4,0,0,0,0,0,0,0,394,0,No
3,5,5,0,0,4,0,0,0,0,0,0,0,394,0,No
4,7,12,0,1,6,0,0,0,0,0,0,0,931,0,No
17,9,23,0,4,7,0,0,0,0,0,0,0,754,0,Yes
8,8,9,0,0,3,0,0,0,0,0,0,0,260,0,Yes
21,11,46,502,4,3,485,316,468,316,14,74,149,22,0,No
14,15,34,0,1,7,0,0,0,0,0,0,0,818,0,No
7,11,11,0,0,7,0,0,0,0,0,0,0,656,0,No
5,5,15,0,0,7,0,0,0,0,0,0,0,770,0,No
5,3,5,28,1,4,26,26,24,24,4,19,27,342,0,No
11,12,15,0,2,4,0,0,0,0,0,0,0,342,0,Yes
6,7,11,0,0,7,0,0,0,0,0,0,0,770,0,No
6,5,8,0,1,6,0,0,0,0,0,0,0,1262,0,No
14,12,28,0,3,6,0,0,0,0,0,0,0,1237,0,No
0,0,0,0,0,5,0,0,0,0,0,0,0,1262,0,No
7,7,16,0,3,7,0,0,0,0,0,0,0,818,0,No
4,1,4,0,1,5,0,0,0,0,0,0,0,751,0,No
5,1,16,0,1,7,0,0,0,0,0,0,0,1210,0,No
5,1,5,0,2,7,0,0,0,0,0,0,0,1210,0,No
6,1,32,0,0,6,0,0,0,0,0,0,0,818,0,No
19,0,35,0,2,6,0,0,0,0,0,0,0,818,0,No
9,0,30,0,0,3,0,0,0,0,0,0,0,631,0,No
0,1,0,0,1,2,0,0,0,0,0,0,0,623,0,No
11,8,86,0,1,5,0,0,0,0,0,0,0,400,0,No
5,3,11,0,1,3,0,0,0,0,0,0,0,317,0,No
6,0,15,0,2,5,0,0,0,0,0,0,0,1301,0,No
9,2,9,0,1,4,0,0,0,0,0,0,0,1258,0,No
8,2,8,0,1,5,0,0,0,0,0,0,0,1258,0,No
44,7,49,0,0,6,0,0,0,0,0,0,0,1246,0,No
13,2,27,0,0,4,0,0,0,0,0,0,0,656,0,No
8,3,19,0,0,2,0,0,0,0,0,0,0,381,0,No
54,11,94,8,3,8,4,4,0,0,1,9,19,1255,0,No
10,3,23,0,0,2,0,0,0,0,0,0,0,381,0,No
17,8,17,0,0,6,0,0,0,0,0,0,0,1301,0,Yes
5,3,9,0,0,4,0,0,0,0,0,0,0,1290,0,No
1,2,7,0,2,5,0,0,0,0,0,0,0,1097,0,No
1,3,2,0,2,3,0,0,0,0,0,0,0,398,0,No
1,2,2,0,3,5,0,0,0,0,0,0,0,1097,0,No
1,4,9,0,2,5,0,0,0,0,0,0,0,1097,0,No
1,3,5,0,2,5,0,0,0,0,0,0,0,862,0,No
1,2,7,0,2,8,0,0,0,0,0,0,0,862,0,No
1,2,1,0,0,4,0,0,0,0,0,0,0,831,0,No
1,7,18,0,0,5,0,0,0,0,0,0,0,831,0,No
0,0,0,0,0,1,0,0,0,0,0,0,0,400,0,No
2,7,12,67,1,4,47,38,27,23,8,47,93,401,0,No
4,8,7,39,2,5,38,38,37,37,4,30,67,854,0,No
3,5,12,0,0,4,0,0,0,0,0,0,0,730,0,No
2,9,11,10,0,4,3,3,-4,0,4,22,49,656,0,No
0,0,0,0,0,3,0,0,0,0,0,0,0,862,0,No
0,1,0,63,1,5,34,26,5,6,7,39,92,1262,0,No
6,9,21,62,3,7,37,37,12,12,4,30,67,1253,0,No
16,13,32,95,4,7,37,34,-21,0,7,39,92,818,0,No
6,9,21,76,2,7,44,41,12,11,7,39,92,1258,0,No
40,33,85,1026,6,8,475,202,-76,28,15,76,165,1268,0,Yes
6,9,21,73,2,8,42,39,11,10,7,39,92,936,0,No
7,5,7,52,2,6,12,12,-28,0,8,49,94,751,0,No
7,11,23,0,0,5,0,0,0,0,0,0,0,656,0,No
7,26,50,19,1,8,9,7,-1,2,2,10,20,1139,0,No
3,0,18,0,1,3,0,0,0,0,0,0,0,313,0,No
9,11,35,0,2,6,0,0,0,0,0,0,0,313,0,Yes
5,0,5,0,0,4,0,0,0,0,0,0,0,1237,0,No
3,4,7,20,1,2,1,1,-18,0,4,19,27,300,0,No
6,23,71,16,3,6,13,13,10,10,1,1,1,400,0,No
8,1,18,0,0,5,0,0,0,0,0,0,0,1000,0,No
1,0,2,0,0,5,0,0,0,0,0,0,0,1262,0,No
2,0,6,0,0,4,0,0,0,0,0,0,0,685,0,No
1,6,3,5,2,4,0,0,-5,0,4,30,67,317,0,No
10,7,10,0,1,7,0,0,0,0,0,0,0,786,0,No
17,2,26,0,0,5,0,0,0,0,0,0,0,763,0,No
22,7,40,0,0,5,0,0,0,0,0,0,0,763,0,Yes
1,0,1,0,0,3,0,0,0,0,0,0,0,862,0,No
1,0,1,0,0,3,0,0,0,0,0,0,0,862,0,No
6,0,19,0,1,3,0,0,0,0,0,0,0,802,0,No
5,0,17,0,0,3,0,0,0,0,0,0,0,802,0,No
4,0,5,0,0,2,0,0,0,0,0,0,0,394,0,No
15,15,35,0,2,4,0,0,0,0,0,0,0,410,0,No
0,0,0,0,0,6,0,0,0,0,0,0,0,948,0,No
0,0,0,0,0,4,0,0,0,0,0,0,0,1348,0,No
5,1,6,0,0,4,0,0,0,0,0,0,0,1387,0,No
29,1,51,0,0,5,0,0,0,0,0,0,0,1234,0,No
5,3,5,0,1,3,0,0,0,0,0,0,0,414,0,No
6,1,6,0,0,3,0,0,0,0,0,0,0,409,0,No
20,0,29,0,0,6,0,0,0,0,0,0,0,1354,0,No
9,1,16,0,0,2,0,0,0,0,0,0,0,346,0,No
16,1,18,0,0,5,0,0,0,0,0,0,0,837,0,No
6,1,9,0,0,2,0,0,0,0,0,0,0,394,0,No
30,0,37,0,1,5,0,0,0,0,0,0,0,1316,0,No
10,3,13,0,0,5,0,0,0,0,0,0,0,834,0,No
25,0,31,0,0,5,0,0,0,0,0,0,0,1354,0,No
0,1,0,0,0,4,0,0,0,0,0,0,0,1348,0,No
1,0,1,0,0,5,0,0,0,0,0,0,0,1348,0,No
1,0,1,0,2,5,0,0,0,0,0,0,0,1387,0,No
1,0,1,0,0,6,0,0,0,0,0,0,0,1348,0,No
15,1,17,0,0,5,0,0,0,0,0,0,0,1387,0,No
7,1,7,0,0,4,0,0,0,0,0,0,0,1387,0,No
1,0,1,0,0,5,0,0,0,0,0,0,0,1348,0,No
2,0,2,0,2,3,0,0,0,0,0,0,0,674,0,No
1,0,1,0,0,5,0,0,0,0,0,0,0,1348,0,No
2,0,2,0,0,5,0,0,0,0,0,0,0,1348,0,No
2,0,3,0,0,5,0,0,0,0,0,0,0,1348,0,No
1,0,1,0,0,5,0,0,0,0,0,0,0,1348,0,No
1,0,1,0,0,5,0,0,0,0,0,0,0,1348,0,No
2,4,2,0,1,4,0,0,0,0,0,0,0,948,0,No
3,0,6,8,4,4,3,3,-2,0,2,5,6,1332,0,No
1,0,1,0,0,5,0,0,0,0,0,0,0,948,0,No
1,1,7,11,1,3,5,5,-1,0,1,2,2,1211,0,No
3,0,3,0,0,2,0,0,0,0,0,0,0,386,0,No
7,2,12,0,0,4,0,0,0,0,0,0,0,1107,0,No
1,1,4,0,0,3,0,0,0,0,0,0,0,1387,0,No
7,0,12,0,0,5,0,0,0,0,0,0,0,947,0,No
3,7,8,0,1,6,0,0,0,0,0,0,0,947,0,No
6,6,7,40,2,3,20,11,0,2,3,7,51,346,0,No
4,7,12,0,2,6,0,0,0,0,0,0,0,1323,0,No
11,3,16,0,3,6,0,0,0,0,0,0,0,1296,0,No
0,2,0,0,0,5,0,0,0,0,0,0,0,1346,0,No
5,6,9,13,5,7,7,4,1,1,6,21,90,1296,0,No
4,5,6,0,0,4,0,0,0,0,0,0,0,480,0,No
3,5,5,0,0,4,0,0,0,0,0,0,0,480,0,No
4,7,12,0,1,6,0,0,0,0,0,0,0,1017,0,No
17,9,23,6,6,7,3,2,0,1,3,7,51,840,0,No
21,11,46,0,4,3,0,0,0,0,0,0,0,108,0,No
14,15,34,0,1,7,0,0,0,0,0,0,0,904,0,No
7,11,11,0,0,7,0,0,0,0,0,0,0,742,0,No
5,5,15,0,0,7,0,0,0,0,0,0,0,856,0,No
5,3,5,0,1,4,0,0,0,0,0,0,0,428,0,No
11,12,15,22,4,4,11,7,0,3,3,7,51,428,0,No
6,7,11,0,0,7,0,0,0,0,0,0,0,856,0,No
6,5,8,0,1,6,0,0,0,0,0,0,0,1348,0,No
14,12,28,0,3,6,0,0,0,0,0,0,0,1323,0,No
0,0,0,0,0,5,0,0,0,0,0,0,0,1348,0,No
4,1,4,0,1,5,0,0,0,0,0,0,0,837,0,No
5,1,16,0,1,7,0,0,0,0,0,0,0,1296,0,No
5,1,5,0,2,7,0,0,0,0,0,0,0,1296,0,No
6,1,32,0,0,6,0,0,0,0,0,0,0,904,0,No
19,0,35,0,2,6,0,0,0,0,0,0,0,904,0,No
9,0,30,0,0,3,0,0,0,0,0,0,0,717,0,No
0,1,0,0,1,2,0,0,0,0,0,0,0,709,0,No
11,8,86,0,1,5,0,0,0,0,0,0,0,486,0,No
5,3,11,0,1,3,0,0,0,0,0,0,0,403,0,No
6,0,15,0,2,5,0,0,0,0,0,0,0,1387,0,No
9,2,9,0,1,4,0,0,0,0,0,0,0,1344,0,No
8,2,8,0,1,5,0,0,0,0,0,0,0,1344,0,No
44,7,49,2,0,6,1,1,0,0,3,14,39,1332,0,No
13,2,27,0,0,4,0,0,0,0,0,0,0,742,0,No
8,3,19,0,0,2,0,0,0,0,0,0,0,467,0,No
54,11,94,0,3,8,0,0,0,0,0,0,0,1341,0,No
10,3,23,0,0,2,0,0,0,0,0,0,0,467,0,No
5,3,9,0,0,4,0,0,0,0,0,0,0,1376,0,No
1,2,7,0,2,5,0,0,0,0,0,0,0,1183,0,No
1,3,2,0,2,3,0,0,0,0,0,0,0,484,0,No
1,2,2,0,3,5,0,0,0,0,0,0,0,1183,0,No
1,4,9,0,2,5,0,0,0,0,0,0,0,1183,0,No
1,3,5,0,2,5,0,0,0,0,0,0,0,948,0,No
1,2,7,0,2,8,0,0,0,0,0,0,0,948,0,No
1,2,1,0,0,4,0,0,0,0,0,0,0,917,0,No
1,7,18,0,0,5,0,0,0,0,0,0,0,917,0,No
0,0,0,0,0,1,0,0,0,0,0,0,0,486,0,No
2,7,12,0,1,4,0,0,0,0,0,0,0,487,0,No
4,8,7,2,2,5,1,1,0,0,2,11,14,940,0,No
3,1,12,19,0,4,3,3,-13,0,2,11,14,816,0,No
2,9,11,0,0,4,0,0,0,0,0,0,0,742,0,No
0,0,0,0,0,3,0,0,0,0,0,0,0,948,0,No
0,1,0,0,1,5,0,0,0,0,0,0,0,1348,0,No
6,9,21,0,3,7,0,0,0,0,0,0,0,1339,0,No
16,13,32,0,4,7,0,0,0,0,0,0,0,904,0,No
6,9,21,0,2,7,0,0,0,0,0,0,0,1344,0,No
40,33,86,33,8,8,23,20,13,10,4,12,20,1354,0,Yes
6,9,21,0,2,8,0,0,0,0,0,0,0,1022,0,No
7,5,7,0,2,6,0,0,0,0,0,0,0,837,0,No
7,11,23,0,0,5,0,0,0,0,0,0,0,742,0,No
7,26,50,0,1,8,0,0,0,0,0,0,0,1225,0,No
3,0,18,0,1,3,0,0,0,0,0,0,0,399,0,No
9,11,36,8,3,6,5,5,2,2,2,5,6,399,0,No
5,0,5,0,0,4,0,0,0,0,0,0,0,1323,0,No
3,4,7,0,1,2,0,0,0,0,0,0,0,386,0,No
6,23,71,0,3,6,0,0,0,0,0,0,0,486,0,No
8,1,18,0,0,5,0,0,0,0,0,0,0,1086,0,No
1,0,2,0,0,5,0,0,0,0,0,0,0,1348,0,No
2,0,6,0,0,4,0,0,0,0,0,0,0,771,0,No
1,6,3,0,2,4,0,0,0,0,0,0,0,403,0,No
10,7,10,0,1,7,0,0,0,0,0,0,0,872,0,No
17,2,26,0,0,5,0,0,0,0,0,0,0,849,0,No
22,7,40,0,0,5,0,0,0,0,0,0,0,849,0,No
1,0,1,0,0,3,0,0,0,0,0,0,0,948,0,No
1,0,1,0,0,3,0,0,0,0,0,0,0,948,0,No
6,0,19,0,1,3,0,0,0,0,0,0,0,850,0,No
5,0,17,0,0,3,0,0,0,0,0,0,0,850,0,No
4,0,5,0,0,2,0,0,0,0,0,0,0,442,0,No
15,15,35,0,2,4,0,0,0,0,0,0,0,458,0,No
0,0,0,0,0,6,0,0,0,0,0,0,0,996,0,No
0,0,0,0,0,4,0,0,0,0,0,0,0,1396,0,No
5,1,6,0,0,4,0,0,0,0,0,0,0,1435,0,No
29,1,51,0,0,5,0,0,0,0,0,0,0,1282,0,No
5,3,5,0,1,3,0,0,0,0,0,0,0,462,0,No
6,1,6,0,0,3,0,0,0,0,0,0,0,457,0,No
20,0,29,0,0,6,0,0,0,0,0,0,0,1402,0,No
9,1,16,0,0,2,0,0,0,0,0,0,0,394,0,No
16,1,18,0,0,5,0,0,0,0,0,0,0,885,0,No
6,1,9,0,0,2,0,0,0,0,0,0,0,442,0,No
30,0,37,0,1,5,0,0,0,0,0,0,0,1364,0,No
10,3,13,0,0,5,0,0,0,0,0,0,0,882,0,No
25,0,31,0,0,5,0,0,0,0,0,0,0,1402,0,No
0,1,0,0,0,4,0,0,0,0,0,0,0,1396,0,No
1,0,1,0,0,5,0,0,0,0,0,0,0,1396,0,No
1,0,1,0,2,5,0,0,0,0,0,0,0,1435,0,No
1,0,1,0,0,6,0,0,0,0,0,0,0,1396,0,No
15,1,17,0,0,5,0,0,0,0,0,0,0,1435,0,No
7,1,7,0,0,4,0,0,0,0,0,0,0,1435,0,No
1,0,1,0,0,5,0,0,0,0,0,0,0,1396,0,No
2,0,2,0,2,3,0,0,0,0,0,0,0,722,0,No
1,0,1,0,0,5,0,0,0,0,0,0,0,1396,0,No
2,0,2,0,0,5,0,0,0,0,0,0,0,1396,0,No
2,0,3,0,0,5,0,0,0,0,0,0,0,1396,0,No
1,0,1,0,0,5,0,0,0,0,0,0,0,1396,0,No
1,0,1,0,0,5,0,0,0,0,0,0,0,1396,0,No
2,4,2,0,1,4,0,0,0,0,0,0,0,996,0,No
3,0,6,0,4,4,0,0,0,0,0,0,0,1380,0,No
1,0,1,0,0,5,0,0,0,0,0,0,0,996,0,No
1,1,7,0,1,3,0,0,0,0,0,0,0,1259,0,No
3,0,3,0,0,2,0,0,0,0,0,0,0,434,0,No
7,2,12,0,0,4,0,0,0,0,0,0,0,1155,0,No
1,1,4,0,0,3,0,0,0,0,0,0,0,1435,0,No
7,0,12,0,0,5,0,0,0,0,0,0,0,995,0,No
3,7,8,0,1,6,0,0,0,0,0,0,0,995,0,No
6,6,7,0,2,3,0,0,0,0,0,0,0,394,0,No
4,7,12,0,2,6,0,0,0,0,0,0,0,1371,0,No
11,3,16,0,3,6,0,0,0,0,0,0,0,1344,0,No
0,2,0,0,0,5,0,0,0,0,0,0,0,1394,0,No
5,6,9,0,5,7,0,0,0,0,0,0,0,1344,0,No
4,5,6,0,0,4,0,0,0,0,0,0,0,528,0,No
3,5,5,0,0,4,0,0,0,0,0,0,0,528,0,No
4,7,12,0,1,6,0,0,0,0,0,0,0,1065,0,No
17,9,23,0,6,7,0,0,0,0,0,0,0,888,0,No
21,11,46,0,4,3,0,0,0,0,0,0,0,156,0,No
14,15,34,0,1,7,0,0,0,0,0,0,0,952,0,Yes
7,11,11,0,0,7,0,0,0,0,0,0,0,790,0,Yes
5,5,15,0,0,7,0,0,0,0,0,0,0,904,0,No
5,3,5,0,1,4,0,0,0,0,0,0,0,476,0,No
11,12,15,0,4,4,0,0,0,0,0,0,0,476,0,No
6,7,11,0,0,7,0,0,0,0,0,0,0,904,0,No
6,5,8,0,1,6,0,0,0,0,0,0,0,1396,0,No
14,12,28,0,3,6,0,0,0,0,0,0,0,1371,0,No
0,0,0,0,0,5,0,0,0,0,0,0,0,1396,0,No
4,1,4,0,1,5,0,0,0,0,0,0,0,885,0,No
5,1,16,0,1,7,0,0,0,0,0,0,0,1344,0,No
5,1,5,0,2,7,0,0,0,0,0,0,0,1344,0,No
6,1,32,0,0,6,0,0,0,0,0,0,0,952,0,No
19,0,35,0,2,6,0,0,0,0,0,0,0,952,0,Yes
9,0,30,0,0,3,0,0,0,0,0,0,0,765,0,No
0,1,0,0,1,2,0,0,0,0,0,0,0,757,0,No
11,8,86,0,1,5,0,0,0,0,0,0,0,534,0,No
5,3,11,0,1,3,0,0,0,0,0,0,0,451,0,No
6,0,15,0,2,5,0,0,0,0,0,0,0,1435,0,No
9,2,9,0,1,4,0,0,0,0,0,0,0,1392,0,No
8,2,8,0,1,5,0,0,0,0,0,0,0,1392,0,No
44,7,49,0,0,6,0,0,0,0,0,0,0,1380,0,No
13,2,27,0,0,4,0,0,0,0,0,0,0,790,0,No
8,3,19,0,0,2,0,0,0,0,0,0,0,515,0,No
54,11,94,0,3,8,0,0,0,0,0,0,0,1389,0,No
10,3,23,0,0,2,0,0,0,0,0,0,0,515,0,No
5,3,9,0,0,4,0,0,0,0,0,0,0,1424,0,No
1,2,7,0,2,5,0,0,0,0,0,0,0,1231,0,No
1,3,2,0,2,3,0,0,0,0,0,0,0,532,0,No
1,2,2,0,3,5,0,0,0,0,0,0,0,1231,0,No
1,4,9,0,2,5,0,0,0,0,0,0,0,1231,0,No
1,3,5,0,2,5,0,0,0,0,0,0,0,996,0,No
1,2,7,0,2,8,0,0,0,0,0,0,0,996,0,No
1,2,1,0,0,4,0,0,0,0,0,0,0,965,0,No
1,7,18,0,0,5,0,0,0,0,0,0,0,965,0,No
0,0,0,0,0,1,0,0,0,0,0,0,0,534,0,No
2,7,12,0,1,4,0,0,0,0,0,0,0,535,0,No
4,8,7,0,2,5,0,0,0,0,0,0,0,988,0,No
3,1,12,0,0,4,0,0,0,0,0,0,0,864,0,No
2,9,11,0,0,4,0,0,0,0,0,0,0,790,0,No
0,0,0,0,0,3,0,0,0,0,0,0,0,996,0,No
0,1,0,0,1,5,0,0,0,0,0,0,0,1396,0,No
6,9,21,0,3,7,0,0,0,0,0,0,0,1387,0,No
16,13,32,0,4,7,0,0,0,0,0,0,0,952,0,No
6,9,21,0,2,7,0,0,0,0,0,0,0,1392,0,No
40,33,86,0,8,8,0,0,0,0,0,0,0,1402,0,Yes
6,9,21,0,2,8,0,0,0,0,0,0,0,1070,0,No
7,5,7,0,2,6,0,0,0,0,0,0,0,885,0,No
7,11,23,0,0,5,0,0,0,0,0,0,0,790,0,No
7,26,50,2,1,8,1,1,0,0,1,9,15,1273,0,No
3,0,18,0,1,3,0,0,0,0,0,0,0,447,0,No
9,11,36,0,3,6,0,0,0,0,0,0,0,447,0,No
5,0,5,0,0,4,0,0,0,0,0,0,0,1371,0,No
3,4,7,0,1,2,0,0,0,0,0,0,0,434,0,No
6,23,71,0,3,6,0,0,0,0,0,0,0,534,0,Yes
8,1,18,0,0,5,0,0,0,0,0,0,0,1134,0,No
1,0,2,0,0,5,0,0,0,0,0,0,0,1396,0,No
2,0,6,0,0,4,0,0,0,0,0,0,0,819,0,No
1,6,3,0,2,4,0,0,0,0,0,0,0,451,0,No
10,7,10,0,1,7,0,0,0,0,0,0,0,920,0,No
17,2,26,0,0,5,0,0,0,0,0,0,0,897,0,No
22,7,40,0,0,5,0,0,0,0,0,0,0,897,0,No
1,0,1,0,0,3,0,0,0,0,0,0,0,996,0,No
1,0,1,0,0,3,0,0,0,0,0,0,0,996,0,No
6,0,19,0,1,3,0,0,0,0,0,0,0,933,0,No
5,0,17,0,0,3,0,0,0,0,0,0,0,933,0,No
4,0,5,0,0,2,0,0,0,0,0,0,0,525,0,No
15,15,35,0,2,4,0,0,0,0,0,0,0,541,0,No
0,0,0,0,0,6,0,0,0,0,0,0,0,1079,0,No
0,0,0,0,0,4,0,0,0,0,0,0,0,1479,0,No
5,1,6,0,0,4,0,0,0,0,0,0,0,1518,0,No
29,1,51,0,0,5,0,0,0,0,0,0,0,1365,0,No
5,3,5,0,1,3,0,0,0,0,0,0,0,545,0,No
6,1,6,0,0,3,0,0,0,0,0,0,0,540,0,No
20,0,29,2,0,7,1,1,0,0,1,1,1,1485,0,No
9,1,16,0,0,2,0,0,0,0,0,0,0,477,0,No
16,1,18,0,0,5,0,0,0,0,0,0,0,968,0,No
6,1,9,0,0,2,0,0,0,0,0,0,0,525,0,No
30,0,37,0,1,5,0,0,0,0,0,0,0,1447,0,No
10,3,13,0,0,5,0,0,0,0,0,0,0,965,0,No
25,0,31,0,0,5,0,0,0,0,0,0,0,1485,0,No
0,1,0,0,0,4,0,0,0,0,0,0,0,1479,0,No
1,0,1,0,0,5,0,0,0,0,0,0,0,1479,0,No
1,0,1,0,2,5,0,0,0,0,0,0,0,1518,0,No
1,0,1,0,0,6,0,0,0,0,0,0,0,1479,0,No
16,1,18,29,0,5,21,11,13,10,7,13,18,1518,0,No
6,1,6,14,0,4,5,3,-4,0,7,13,18,1518,0,No
1,0,1,0,0,5,0,0,0,0,0,0,0,1479,0,No
2,0,2,0,2,3,0,0,0,0,0,0,0,805,0,No
1,0,1,0,0,5,0,0,0,0,0,0,0,1479,0,No
2,0,2,0,0,5,0,0,0,0,0,0,0,1479,0,No
2,0,3,0,0,5,0,0,0,0,0,0,0,1479,0,No
1,0,1,0,0,5,0,0,0,0,0,0,0,1479,0,No
1,0,1,0,0,5,0,0,0,0,0,0,0,1479,0,No
2,4,2,0,1,4,0,0,0,0,0,0,0,1079,0,No
3,0,6,0,4,4,0,0,0,0,0,0,0,1463,0,No
1,0,1,0,0,5,0,0,0,0,0,0,0,1079,0,No
1,1,7,0,1,3,0,0,0,0,0,0,0,1342,0,No
3,0,3,0,0,2,0,0,0,0,0,0,0,517,0,No
7,2,12,0,0,4,0,0,0,0,0,0,0,1238,0,No
1,1,4,0,0,3,0,0,0,0,0,0,0,1518,0,No
7,0,12,0,0,5,0,0,0,0,0,0,0,1078,0,No
3,7,8,0,1,6,0,0,0,0,0,0,0,1078,0,No
6,6,7,0,2,3,0,0,0,0,0,0,0,477,0,No
4,7,12,0,2,6,0,0,0,0,0,0,0,1454,0,No
11,3,16,0,3,6,0,0,0,0,0,0,0,1427,0,No
0,2,0,0,0,5,0,0,0,0,0,0,0,1477,0,No
5,6,9,0,5,7,0,0,0,0,0,0,0,1427,0,No
4,5,6,0,0,4,0,0,0,0,0,0,0,611,0,No
3,5,5,0,0,4,0,0,0,0,0,0,0,611,0,No
4,7,12,0,1,6,0,0,0,0,0,0,0,1148,0,No
17,9,23,0,6,7,0,0,0,0,0,0,0,971,0,No
21,11,46,0,4,3,0,0,0,0,0,0,0,239,0,No
14,15,34,0,1,7,0,0,0,0,0,0,0,1035,0,No
5,5,15,0,0,7,0,0,0,0,0,0,0,987,0,No
5,3,5,0,1,4,0,0,0,0,0,0,0,559,0,No
11,12,15,0,4,4,0,0,0,0,0,0,0,559,0,No
6,7,11,0,0,7,0,0,0,0,0,0,0,987,0,No
6,5,8,0,1,6,0,0,0,0,0,0,0,1479,0,No
14,12,28,3,3,6,2,2,1,1,4,7,8,1454,0,No
0,0,0,0,0,5,0,0,0,0,0,0,0,1479,0,No
4,1,4,0,1,5,0,0,0,0,0,0,0,968,0,No
5,1,16,0,1,7,0,0,0,0,0,0,0,1427,0,Yes
5,1,5,0,2,7,0,0,0,0,0,0,0,1427,0,Yes
6,1,32,0,0,6,0,0,0,0,0,0,0,1035,0,Yes
19,0,35,0,2,6,0,0,0,0,0,0,0,1035,0,Yes
9,0,30,0,0,3,0,0,0,0,0,0,0,848,0,No
0,1,0,0,1,2,0,0,0,0,0,0,0,840,0,No
10,9,84,45,1,5,21,20,-3,0,2,18,38,617,0,No
5,3,11,0,1,3,0,0,0,0,0,0,0,534,0,No
6,0,15,4,2,5,2,2,0,0,1,16,36,1518,0,No
9,2,9,0,1,4,0,0,0,0,0,0,0,1475,0,No
8,2,8,0,1,5,0,0,0,0,0,0,0,1475,0,No
44,7,49,2,0,6,1,1,0,0,1,16,36,1463,0,No
13,2,27,0,0,4,0,0,0,0,0,0,0,873,0,No
8,3,19,0,0,2,0,0,0,0,0,0,0,598,0,No
55,11,95,9,3,9,7,7,5,7,3,3,3,1472,0,No
10,3,23,0,0,2,0,0,0,0,0,0,0,598,0,No
5,3,9,0,0,4,0,0,0,0,0,0,0,1507,0,No
1,2,7,0,2,5,0,0,0,0,0,0,0,1314,0,No
1,3,2,0,2,3,0,0,0,0,0,0,0,615,0,No
1,2,2,0,3,5,0,0,0,0,0,0,0,1314,0,No
1,4,9,0,2,5,0,0,0,0,0,0,0,1314,0,No
1,3,5,0,2,5,0,0,0,0,0,0,0,1079,0,No
1,2,7,0,2,8,0,0,0,0,0,0,0,1079,0,No
1,2,1,0,0,4,0,0,0,0,0,0,0,1048,0,No
1,7,18,0,0,5,0,0,0,0,0,0,0,1048,0,No
0,0,0,0,0,1,0,0,0,0,0,0,0,617,0,No
2,7,12,0,1,4,0,0,0,0,0,0,0,618,0,No
4,8,7,0,2,5,0,0,0,0,0,0,0,1071,0,No
3,1,12,0,0,4,0,0,0,0,0,0,0,947,0,No
2,9,11,0,0,4,0,0,0,0,0,0,0,873,0,No
0,0,0,0,0,3,0,0,0,0,0,0,0,1079,0,No
0,1,0,0,1,5,0,0,0,0,0,0,0,1479,0,No
6,9,21,2,3,7,1,1,0,0,1,16,36,1470,0,No
16,13,32,0,4,7,0,0,0,0,0,0,0,1035,0,No
6,9,21,2,2,7,1,1,0,0,1,16,36,1475,0,No
40,33,88,10,9,9,8,8,6,6,1,3,3,1485,0,No
6,9,21,2,2,8,1,1,0,0,1,16,36,1153,0,No
7,5,7,0,2,6,0,0,0,0,0,0,0,968,0,No
7,11,23,0,0,5,0,0,0,0,0,0,0,873,0,No
7,26,50,2,1,8,1,1,0,0,1,16,36,1356,0,No
3,0,18,0,1,3,0,0,0,0,0,0,0,530,0,No
9,11,36,0,3,6,0,0,0,0,0,0,0,530,0,No
5,0,5,0,0,4,0,0,0,0,0,0,0,1454,0,No
3,4,7,0,1,2,0,0,0,0,0,0,0,517,0,No
6,23,71,2,3,6,1,1,0,0,1,16,36,617,0,No
8,1,18,0,0,5,0,0,0,0,0,0,0,1217,0,No
4,0,4,27,0,6,17,17,7,7,1,2,2,1479,0,No
2,0,6,0,0,4,0,0,0,0,0,0,0,902,0,No
1,6,3,0,2,4,0,0,0,0,0,0,0,534,0,No
10,7,10,0,1,7,0,0,0,0,0,0,0,1003,0,No
17,2,26,0,0,5,0,0,0,0,0,0,0,980,0,No
22,7,40,0,0,5,0,0,0,0,0,0,0,980,0,No
1,0,1,0,0,3,0,0,0,0,0,0,0,1079,0,No
1,0,1,0,0,3,0,0,0,0,0,0,0,1079,0,No
6,0,19,6,1,3,2,2,-2,0,5,10,17,1000,0,No
5,0,17,0,0,3,0,0,0,0,0,0,0,1000,0,No
4,0,5,0,0,2,0,0,0,0,0,0,0,592,0,No
21,3,29,0,0,1,0,0,0,0,0,0,0,353,0,No
0,0,0,104,0,6,52,52,0,0,5,19,136,1146,0,No
9,1,14,0,0,1,0,0,0,0,0,0,0,252,0,No
3,0,4,0,2,1,0,0,0,0,0,0,0,265,0,No
2,4,7,0,0,1,0,0,0,0,0,0,0,80,0,No
4,0,4,0,1,2,0,0,0,0,0,0,0,265,0,No
5,3,5,198,1,3,99,99,0,0,5,19,136,612,0,No
6,2,6,0,1,6,0,0,0,0,0,0,0,1585,0,No
10,2,23,246,1,5,123,122,0,0,10,34,154,665,0,No
10,3,10,308,0,1,154,154,0,0,5,19,136,108,0,No
20,0,26,326,0,6,163,163,0,0,5,19,136,1552,0,No
0,1,0,54,0,4,27,27,0,0,5,19,136,1546,0,No
1,0,1,122,2,5,61,61,0,0,5,19,136,1585,0,No
4,0,7,210,0,2,105,105,0,0,5,19,136,314,0,No
1,0,1,76,0,6,38,38,0,0,5,19,136,1546,0,No
16,1,18,250,0,5,125,125,0,0,5,19,136,1585,0,No
6,1,6,138,0,4,69,69,0,0,5,19,136,1585,0,No
2,0,2,122,0,6,61,61,0,0,5,19,136,1546,0,No
2,0,5,0,0,5,0,0,0,0,0,0,0,1146,0,No
2,0,3,98,0,5,49,49,0,0,5,19,136,1546,0,No
1,0,1,68,0,5,34,34,0,0,5,19,136,1546,0,No
5,4,10,164,2,4,82,80,0,0,7,21,138,597,0,No
3,1,4,0,0,1,0,0,0,0,0,0,0,247,0,No
1,2,8,0,1,3,0,0,0,0,0,0,0,1409,0,No
3,0,3,0,0,2,0,0,0,0,0,0,0,584,0,No
7,2,12,0,0,4,0,0,0,0,0,0,0,1305,0,No
1,1,4,0,0,3,0,0,0,0,0,0,0,1585,0,No
7,0,12,0,0,5,0,0,0,0,0,0,0,1145,0,No
2,0,2,0,0,5,0,0,0,0,0,0,0,1546,0,No
8,3,28,0,0,4,0,0,0,0,0,0,0,927,0,No
4,6,6,0,1,7,0,0,0,0,0,0,0,1145,0,No
6,6,7,0,3,3,0,0,0,0,0,0,0,544,0,Yes
4,6,12,0,3,7,0,0,0,0,0,0,0,1521,0,No
11,4,12,0,3,7,0,0,0,0,0,0,0,1494,0,No
5,5,9,0,6,8,0,0,0,0,0,0,0,1494,0,No
4,5,6,0,0,4,0,0,0,0,0,0,0,678,0,No
11,13,17,0,5,8,0,0,0,0,0,0,0,1546,0,No
3,4,4,0,0,5,0,0,0,0,0,0,0,678,0,No
2,5,4,3,0,6,2,2,1,1,3,23,42,1215,0,No
4,6,12,0,1,8,0,0,0,0,0,0,0,1215,0,No
12,12,61,0,2,4,0,0,0,0,0,0,0,626,0,No
17,8,23,0,7,8,0,0,0,0,0,0,0,1038,0,No
4,8,5,0,3,3,0,0,0,0,0,0,0,544,0,No
6,8,17,0,0,1,0,0,0,0,0,0,0,332,0,No
9,11,19,0,2,6,0,0,0,0,0,0,0,1213,0,No
21,11,46,0,4,3,0,0,0,0,0,0,0,306,0,No
14,16,31,0,2,7,0,0,0,0,0,0,0,1102,0,No
5,5,15,0,0,7,0,0,0,0,0,0,0,1054,0,No
7,3,7,0,1,4,0,0,0,0,0,0,0,626,0,No
11,11,15,0,5,5,0,0,0,0,0,0,0,626,0,No
6,7,11,0,0,7,0,0,0,0,0,0,0,1054,0,No
7,5,9,0,1,6,0,0,0,0,0,0,0,1546,0,No
12,14,34,0,2,6,0,0,0,0,0,0,0,1213,0,No
0,0,0,0,0,5,0,0,0,0,0,0,0,1146,0,No
14,13,28,0,3,6,0,0,0,0,0,0,0,1521,0,No
0,0,0,0,0,5,0,0,0,0,0,0,0,1546,0,No
7,4,14,0,4,7,0,0,0,0,0,0,0,1102,0,No
5,5,7,4,0,2,2,2,0,0,3,23,42,305,0,No
5,5,8,0,0,6,0,0,0,0,0,0,0,1342,0,No
4,1,4,0,1,5,0,0,0,0,0,0,0,1035,0,No
5,1,5,2,3,8,1,1,0,0,1,1,8,1494,0,No
5,1,8,2,3,8,1,1,0,0,1,1,8,1494,0,No
9,0,30,0,0,3,0,0,0,0,0,0,0,915,0,No
1,0,2,59,0,2,55,52,51,52,8,16,26,26,0,No
1,0,2,0,0,1,0,0,0,0,0,0,0,355,0,No
10,9,84,0,1,5,0,0,0,0,0,0,0,684,0,No
5,3,11,0,1,3,0,0,0,0,0,0,0,601,0,No
6,0,15,0,2,5,0,0,0,0,0,0,0,1585,0,No
9,2,9,0,1,4,0,0,0,0,0,0,0,1542,0,No
8,1,12,0,0,2,0,0,0,0,0,0,0,409,0,No
8,2,8,0,1,5,0,0,0,0,0,0,0,1542,0,No
13,2,27,0,0,4,0,0,0,0,0,0,0,940,0,No
8,3,19,0,0,2,0,0,0,0,0,0,0,665,0,No
53,11,92,4,5,10,2,2,0,0,3,23,42,1539,0,No
10,3,23,0,0,2,0,0,0,0,0,0,0,665,0,No
11,2,19,0,1,1,0,0,0,0,0,0,0,264,0,No
3,0,3,92,0,1,46,46,0,0,5,19,136,33,0,No
30,0,55,508,0,1,254,254,0,0,5,19,136,75,0,No
0,0,0,68,0,1,34,34,0,0,5,19,136,75,0,No
1,6,10,0,2,9,0,0,0,0,0,0,0,1140,0,No
1,2,7,0,2,5,0,0,0,0,0,0,0,1381,0,No
1,4,5,0,2,3,0,0,0,0,0,0,0,682,0,No
3,5,20,0,2,7,0,0,0,0,0,0,0,1381,0,No
1,4,9,0,2,5,0,0,0,0,0,0,0,1381,0,No
1,3,5,0,2,5,0,0,0,0,0,0,0,1146,0,No
1,2,7,0,2,8,0,0,0,0,0,0,0,1146,0,No
1,2,1,0,0,4,0,0,0,0,0,0,0,1115,0,No
1,8,18,0,0,5,0,0,0,0,0,0,0,1115,0,No
0,0,0,0,0,1,0,0,0,0,0,0,0,684,0,No
3,9,19,0,0,2,0,0,0,0,0,0,0,82,0,No
2,7,12,0,1,4,0,0,0,0,0,0,0,685,0,No
26,29,81,0,12,10,0,0,0,0,0,0,0,1523,0,No
4,9,7,0,3,6,0,0,0,0,0,0,0,1138,0,No
3,1,12,0,0,4,0,0,0,0,0,0,0,1014,0,No
0,0,0,0,0,3,0,0,0,0,0,0,0,1146,0,No
0,1,0,0,1,5,0,0,0,0,0,0,0,1546,0,No
8,12,14,19,3,8,11,11,3,3,2,7,11,1510,0,No
13,13,29,0,5,7,0,0,0,0,0,0,0,1102,0,No
7,17,47,0,2,7,0,0,0,0,0,0,0,1542,0,No
26,32,72,13,14,9,6,6,-1,0,3,23,42,1552,0,No
7,12,23,0,0,5,0,0,0,0,0,0,0,940,0,No
7,33,67,0,3,8,0,0,0,0,0,0,0,1423,0,No
3,0,18,228,1,3,114,114,0,0,5,19,136,597,0,No
10,11,46,552,3,6,276,276,0,0,5,19,136,597,0,No
5,0,5,0,0,4,0,0,0,0,0,0,0,1521,0,No
7,10,29,0,1,6,0,0,0,0,0,0,0,1585,0,No
5,7,16,232,1,4,116,116,0,0,5,19,136,612,0,No
11,16,17,302,0,5,151,151,0,0,5,19,136,596,0,No
6,16,49,30,3,6,1,1,-28,0,2,8,19,684,0,No
5,13,18,0,0,3,0,0,0,0,0,0,0,88,0,No
3,18,31,26,3,7,22,20,18,18,7,23,37,684,0,No
1,0,10,0,0,1,0,0,0,0,0,0,0,67,0,No
8,2,19,0,0,5,0,0,0,0,0,0,0,1284,0,No
4,0,4,0,0,6,0,0,0,0,0,0,0,1546,0,No
2,0,6,0,0,4,0,0,0,0,0,0,0,969,0,No
1,7,3,0,2,4,0,0,0,0,0,0,0,601,0,No
10,7,10,14,1,8,9,9,4,4,3,23,42,1070,0,No
17,2,26,0,0,5,0,0,0,0,0,0,0,1047,0,No
22,7,38,0,1,5,0,0,0,0,0,0,0,1047,0,No
2,0,2,0,1,5,0,0,0,0,0,0,0,1585,0,No
1,4,2,5,0,6,3,3,1,1,3,23,42,1059,0,No
1,0,1,0,0,3,0,0,0,0,0,0,0,1146,0,No
1,0,1,0,0,3,0,0,0,0,0,0,0,1146,0,No
0,0,0,62,1,5,33,27,4,4,2,10,16,1546,0,No
2,0,5,0,0,1,0,0,0,0,0,0,0,68,0,No
2,0,5,0,0,1,0,0,0,0,0,0,0,68,0,No
2,0,2,2,0,1,1,1,0,0,1,4,11,68,0,No
1,0,1,2,0,1,1,1,0,0,1,4,11,68,0,No
0,0,0,0,0,1,0,0,0,0,0,0,0,68,0,No
0,0,0,0,0,1,0,0,0,0,0,0,0,68,0,No
0,0,0,0,0,1,0,0,0,0,0,0,0,68,0,No
0,0,0,15,0,2,7,4,-1,0,2,6,13,68,0,No
0,0,0,248,1,1,171,169,94,94,2,10,21,68,0,No
1,4,1,118,1,1,61,14,4,4,11,42,76,68,0,No
5,0,6,63,0,1,63,63,63,63,1,4,9,30,0,No
1,0,2,0,0,1,0,0,0,0,0,0,0,68,0,No
4,0,13,9,0,1,9,9,9,9,1,5,9,68,0,No
4,2,23,6,0,1,4,4,2,2,2,8,11,68,0,No
6,0,19,0,1,3,0,0,0,0,0,0,0,1025,0,No
5,0,17,0,0,3,0,0,0,0,0,0,0,1025,0,No
4,0,5,0,0,2,0,0,0,0,0,0,0,617,0,No
21,3,29,0,0,1,0,0,0,0,0,0,0,378,0,No
0,0,0,0,0,6,0,0,0,0,0,0,0,1171,0,No
9,1,14,0,0,1,0,0,0,0,0,0,0,277,0,No
3,0,4,0,2,1,0,0,0,0,0,0,0,290,0,No
2,4,7,0,0,1,0,0,0,0,0,0,0,105,0,No
4,0,4,0,1,2,0,0,0,0,0,0,0,290,0,No
5,3,5,0,1,3,0,0,0,0,0,0,0,637,0,No
6,2,6,0,1,6,0,0,0,0,0,0,0,1610,0,No
10,2,23,0,1,5,0,0,0,0,0,0,0,690,0,No
10,3,10,0,0,1,0,0,0,0,0,0,0,133,0,No
24,0,30,20,0,6,20,20,20,20,3,26,61,1577,0,No
0,1,0,0,0,4,0,0,0,0,0,0,0,1571,0,No
1,0,1,0,2,5,0,0,0,0,0,0,0,1610,0,No
4,0,7,1,0,2,1,1,1,1,3,26,61,339,0,No
1,0,1,0,0,6,0,0,0,0,0,0,0,1571,0,No
16,1,18,0,0,5,0,0,0,0,0,0,0,1610,0,No
6,1,6,0,0,4,0,0,0,0,0,0,0,1610,0,Yes
2,0,2,0,0,6,0,0,0,0,0,0,0,1571,0,No
2,0,5,0,0,5,0,0,0,0,0,0,0,1171,0,No
2,0,3,0,0,5,0,0,0,0,0,0,0,1571,0,No
1,0,1,0,0,5,0,0,0,0,0,0,0,1571,0,No
5,4,10,0,2,4,0,0,0,0,0,0,0,622,0,No
3,1,4,0,0,1,0,0,0,0,0,0,0,272,0,No
1,2,8,0,1,3,0,0,0,0,0,0,0,1434,0,No
3,0,3,0,0,2,0,0,0,0,0,0,0,609,0,No
7,2,12,0,0,4,0,0,0,0,0,0,0,1330,0,No
1,1,4,0,0,3,0,0,0,0,0,0,0,1610,0,No
7,0,12,0,0,5,0,0,0,0,0,0,0,1170,0,No
2,0,2,0,0,5,0,0,0,0,0,0,0,1571,0,No
8,3,28,0,0,4,0,0,0,0,0,0,0,952,0,No
4,6,6,0,1,7,0,0,0,0,0,0,0,1170,0,No
6,6,7,0,3,3,0,0,0,0,0,0,0,569,0,Yes
4,6,12,0,3,7,0,0,0,0,0,0,0,1546,0,No
11,4,12,0,3,7,0,0,0,0,0,0,0,1519,0,No
2,9,5,9,6,6,7,7,5,5,4,10,35,965,0,Yes
5,5,9,0,6,8,0,0,0,0,0,0,0,1519,0,Yes
4,5,6,0,0,4,0,0,0,0,0,0,0,703,0,No
11,13,17,0,5,8,0,0,0,0,0,0,0,1571,0,No
3,4,4,0,0,5,0,0,0,0,0,0,0,703,0,No
4,6,12,0,1,8,0,0,0,0,0,0,0,1240,0,No
12,12,61,0,2,4,0,0,0,0,0,0,0,651,0,No
17,8,23,0,7,8,0,0,0,0,0,0,0,1063,0,No
4,8,5,0,3,3,0,0,0,0,0,0,0,569,0,No
6,8,17,0,0,1,0,0,0,0,0,0,0,357,0,No
9,11,19,0,2,6,0,0,0,0,0,0,0,1238,0,No
21,11,46,0,4,3,0,0,0,0,0,0,0,331,0,No
14,16,31,0,2,7,0,0,0,0,0,0,0,1127,0,No
5,5,15,0,0,7,0,0,0,0,0,0,0,1079,0,No
7,3,7,0,1,4,0,0,0,0,0,0,0,651,0,No
11,11,15,0,5,5,0,0,0,0,0,0,0,651,0,No
6,7,11,0,0,7,0,0,0,0,0,0,0,1079,0,No
3,6,4,102,0,1,100,96,98,96,8,20,56,10,0,No
7,5,9,0,1,6,0,0,0,0,0,0,0,1571,0,No
12,14,34,0,2,6,0,0,0,0,0,0,0,1238,0,No
0,0,0,0,0,5,0,0,0,0,0,0,0,1171,0,No
14,13,28,0,3,6,0,0,0,0,0,0,0,1546,0,No
0,0,0,0,0,5,0,0,0,0,0,0,0,1571,0,No
7,4,14,0,4,7,0,0,0,0,0,0,0,1127,0,No
5,5,8,0,0,6,0,0,0,0,0,0,0,1367,0,No
4,1,4,0,1,5,0,0,0,0,0,0,0,1060,0,No
5,1,5,0,3,8,0,0,0,0,0,0,0,1519,0,No
5,1,8,0,3,8,0,0,0,0,0,0,0,1519,0,No
9,1,14,11,1,6,10,10,9,9,2,2,2,1127,0,Yes
9,0,30,0,0,3,0,0,0,0,0,0,0,940,0,No
1,0,2,0,0,2,0,0,0,0,0,0,0,51,0,No
1,0,2,0,0,1,0,0,0,0,0,0,0,380,0,No
10,9,84,0,1,5,0,0,0,0,0,0,0,709,0,No
5,3,11,0,1,3,0,0,0,0,0,0,0,626,0,No
6,0,15,0,2,5,0,0,0,0,0,0,0,1610,0,No
9,2,9,0,1,4,0,0,0,0,0,0,0,1567,0,No
8,1,12,0,0,2,0,0,0,0,0,0,0,434,0,No
8,2,8,0,1,5,0,0,0,0,0,0,0,1567,0,No
13,2,27,0,0,4,0,0,0,0,0,0,0,965,0,No
8,3,19,0,0,2,0,0,0,0,0,0,0,690,0,No
57,12,96,33,5,10,29,29,25,25,3,26,61,1564,0,No
10,3,23,0,0,2,0,0,0,0,0,0,0,690,0,No
11,2,19,0,1,1,0,0,0,0,0,0,0,289,0,No
3,0,3,0,0,1,0,0,0,0,0,0,0,58,0,No
30,0,55,0,0,1,0,0,0,0,0,0,0,100,0,No
0,0,0,0,0,1,0,0,0,0,0,0,0,100,0,No
1,6,10,0,2,9,0,0,0,0,0,0,0,1165,0,No
1,2,7,0,2,5,0,0,0,0,0,0,0,1406,0,No
1,4,5,0,2,3,0,0,0,0,0,0,0,707,0,No
3,5,20,0,2,7,0,0,0,0,0,0,0,1406,0,No
1,4,9,0,2,5,0,0,0,0,0,0,0,1406,0,No
1,3,5,0,2,5,0,0,0,0,0,0,0,1171,0,No
1,2,7,0,2,8,0,0,0,0,0,0,0,1171,0,No
1,2,1,0,0,4,0,0,0,0,0,0,0,1140,0,No
1,8,18,0,0,5,0,0,0,0,0,0,0,1140,0,No
0,0,0,0,0,1,0,0,0,0,0,0,0,709,0,No
3,9,19,0,0,2,0,0,0,0,0,0,0,107,0,No
2,7,12,0,1,4,0,0,0,0,0,0,0,710,0,No
26,29,81,0,12,10,0,0,0,0,0,0,0,1548,0,No
4,9,7,0,3,6,0,0,0,0,0,0,0,1163,0,No
3,1,12,0,0,4,0,0,0,0,0,0,0,1039,0,No
0,0,0,0,0,3,0,0,0,0,0,0,0,1171,0,No
0,1,0,0,1,5,0,0,0,0,0,0,0,1571,0,No
8,12,14,0,3,8,0,0,0,0,0,0,0,1535,0,No
13,13,30,2,5,8,1,1,0,0,1,1,8,1127,0,No
7,17,47,0,2,7,0,0,0,0,0,0,0,1567,0,No
30,33,85,53,14,10,48,47,43,43,4,27,69,1577,0,No
7,12,23,0,0,5,0,0,0,0,0,0,0,965,0,No
7,33,67,0,3,8,0,0,0,0,0,0,0,1448,0,No
3,0,18,0,1,3,0,0,0,0,0,0,0,622,0,No
10,11,46,0,3,6,0,0,0,0,0,0,0,622,0,No
5,0,5,0,0,4,0,0,0,0,0,0,0,1546,0,No
7,10,29,0,1,6,0,0,0,0,0,0,0,1610,0,No
5,7,16,0,1,4,0,0,0,0,0,0,0,637,0,No
11,16,17,0,0,5,0,0,0,0,0,0,0,621,0,No
6,16,49,0,3,6,0,0,0,0,0,0,0,709,0,No
5,13,18,0,0,3,0,0,0,0,0,0,0,113,0,No
3,18,31,0,3,7,0,0,0,0,0,0,0,709,0,No
1,0,10,0,0,1,0,0,0,0,0,0,0,92,0,No
8,2,19,0,0,5,0,0,0,0,0,0,0,1309,0,No
2,0,4,3,0,1,3,3,3,3,3,26,61,92,0,Yes
4,0,4,0,0,6,0,0,0,0,0,0,0,1571,0,No
2,0,6,0,0,4,0,0,0,0,0,0,0,994,0,No
1,7,3,0,2,4,0,0,0,0,0,0,0,626,0,No
12,7,12,21,1,8,21,21,21,21,3,26,61,1095,0,No
17,2,26,0,0,5,0,0,0,0,0,0,0,1072,0,No
22,7,38,0,1,5,0,0,0,0,0,0,0,1072,0,No
2,0,2,0,1,5,0,0,0,0,0,0,0,1610,0,No
1,4,2,0,0,6,0,0,0,0,0,0,0,1084,0,No
1,0,1,0,0,3,0,0,0,0,0,0,0,1171,0,No
1,0,1,0,0,3,0,0,0,0,0,0,0,1171,0,No
0,0,0,0,1,5,0,0,0,0,0,0,0,1571,0,No
2,0,5,0,0,1,0,0,0,0,0,0,0,93,0,No
2,0,5,0,0,1,0,0,0,0,0,0,0,93,0,No
2,0,2,0,0,1,0,0,0,0,0,0,0,93,0,No
1,0,1,0,0,1,0,0,0,0,0,0,0,93,0,No
0,0,0,0,0,1,0,0,0,0,0,0,0,93,0,No
0,0,0,80,0,1,80,80,80,80,1,4,11,2,0,No
0,0,0,58,0,1,58,58,58,58,1,4,11,2,0,No
0,0,0,0,0,1,0,0,0,0,0,0,0,93,0,No
0,0,0,99,0,1,99,99,99,99,1,4,11,2,0,No
0,0,0,0,0,1,0,0,0,0,0,0,0,93,0,No
0,0,0,0,0,2,0,0,0,0,0,0,0,93,0,No
6,0,7,9,0,1,8,8,7,7,1,2,3,55,0,No
1,0,2,0,0,1,0,0,0,0,0,0,0,93,0,No
4,0,13,0,0,1,0,0,0,0,0,0,0,93,0,No
4,2,23,0,0,1,0,0,0,0,0,0,0,93,0,No
6,0,19,0,1,3,0,0,0,0,0,0,0,1070,0,No
5,0,17,0,0,3,0,0,0,0,0,0,0,1070,0,No
4,0,5,0,0,2,0,0,0,0,0,0,0,662,0,No
21,3,29,0,0,1,0,0,0,0,0,0,0,423,0,No
0,0,0,0,0,6,0,0,0,0,0,0,0,1216,0,No
9,1,14,0,0,1,0,0,0,0,0,0,0,322,0,No
3,0,4,0,2,1,0,0,0,0,0,0,0,335,0,No
2,4,7,0,0,1,0,0,0,0,0,0,0,150,0,No
4,0,4,0,1,2,0,0,0,0,0,0,0,335,0,No
5,3,5,0,1,3,0,0,0,0,0,0,0,682,0,No
6,2,6,0,1,6,0,0,0,0,0,0,0,1655,0,No
10,2,23,0,1,5,0,0,0,0,0,0,0,735,0,Yes
10,3,10,0,0,1,0,0,0,0,0,0,0,178,0,No
24,0,30,0,0,6,0,0,0,0,0,0,0,1622,0,No
0,1,0,0,0,4,0,0,0,0,0,0,0,1616,0,No
1,0,1,0,2,5,0,0,0,0,0,0,0,1655,0,No
4,0,7,3,1,2,2,1,1,1,8,18,33,384,0,No
1,0,1,0,0,6,0,0,0,0,0,0,0,1616,0,No
16,1,18,0,0,5,0,0,0,0,0,0,0,1655,0,No
6,1,6,3,1,5,2,2,1,1,1,1,1,1655,0,No
2,0,2,0,0,6,0,0,0,0,0,0,0,1616,0,No
2,0,5,0,0,5,0,0,0,0,0,0,0,1216,0,No
2,0,3,0,0,5,0,0,0,0,0,0,0,1616,0,No
1,0,1,0,0,5,0,0,0,0,0,0,0,1616,0,No
5,4,10,0,2,4,0,0,0,0,0,0,0,667,0,No
3,1,4,0,0,1,0,0,0,0,0,0,0,317,0,No
1,2,8,0,1,3,0,0,0,0,0,0,0,1479,0,No
3,0,3,0,0,2,0,0,0,0,0,0,0,654,0,No
7,2,12,0,0,4,0,0,0,0,0,0,0,1375,0,No
1,1,4,0,0,3,0,0,0,0,0,0,0,1655,0,No
7,0,12,0,0,5,0,0,0,0,0,0,0,1215,0,No
2,0,2,0,0,5,0,0,0,0,0,0,0,1616,0,No
8,3,28,0,0,4,0,0,0,0,0,0,0,997,0,No
4,6,6,4,1,7,2,2,0,0,1,7,31,1215,0,No
6,7,7,6,4,3,5,5,4,4,3,5,5,614,0,No
3,5,8,91,2,8,38,38,-15,0,1,6,16,1285,0,No
4,6,12,0,3,7,0,0,0,0,0,0,0,1591,0,No
11,4,12,0,3,7,0,0,0,0,0,0,0,1564,0,No
4,7,4,9,4,8,5,5,1,1,1,6,31,1564,0,No
5,6,9,31,7,8,11,9,-9,0,3,19,78,1564,0,No
4,5,6,0,0,4,0,0,0,0,0,0,0,748,0,No
11,13,17,0,5,8,0,0,0,0,0,0,0,1616,0,No
3,4,4,0,0,5,0,0,0,0,0,0,0,748,0,No
4,6,12,0,1,8,0,0,0,0,0,0,0,1285,0,No
12,12,61,0,2,4,0,0,0,0,0,0,0,696,0,No
17,8,23,0,7,8,0,0,0,0,0,0,0,1108,0,No
4,8,5,0,3,3,0,0,0,0,0,0,0,614,0,No
6,8,17,44,0,2,22,21,0,0,4,17,54,402,0,No
9,11,19,0,2,6,0,0,0,0,0,0,0,1283,0,No
21,11,46,0,4,3,0,0,0,0,0,0,0,376,0,No
14,16,31,0,2,7,0,0,0,0,0,0,0,1172,0,No
5,5,15,6,0,7,3,3,0,0,1,6,31,1124,0,No
7,3,7,0,1,4,0,0,0,0,0,0,0,696,0,No
11,11,15,0,5,5,0,0,0,0,0,0,0,696,0,No
6,7,11,0,0,7,0,0,0,0,0,0,0,1124,0,No
3,6,4,0,0,1,0,0,0,0,0,0,0,55,0,No
7,5,9,0,1,6,0,0,0,0,0,0,0,1616,0,No
12,14,34,0,2,6,0,0,0,0,0,0,0,1283,0,No
0,0,0,0,0,5,0,0,0,0,0,0,0,1216,0,No
14,13,28,0,3,6,0,0,0,0,0,0,0,1591,0,No
0,0,0,0,0,5,0,0,0,0,0,0,0,1616,0,No
7,4,14,0,4,7,0,0,0,0,0,0,0,1172,0,No
5,5,8,0,0,6,0,0,0,0,0,0,0,1412,0,No
4,1,4,0,1,5,0,0,0,0,0,0,0,1105,0,No
5,1,5,0,3,8,0,0,0,0,0,0,0,1564,0,No
5,1,8,0,3,8,0,0,0,0,0,0,0,1564,0,No
9,1,14,0,1,6,0,0,0,0,0,0,0,1172,0,No
9,0,30,0,0,3,0,0,0,0,0,0,0,985,0,No
1,0,2,0,0,2,0,0,0,0,0,0,0,96,0,No
1,0,2,0,0,1,0,0,0,0,0,0,0,425,0,No
10,9,84,0,1,5,0,0,0,0,0,0,0,754,0,No
5,3,11,0,1,3,0,0,0,0,0,0,0,671,0,No
6,0,15,0,2,5,0,0,0,0,0,0,0,1655,0,No
9,2,9,0,1,4,0,0,0,0,0,0,0,1612,0,No
8,1,12,0,0,2,0,0,0,0,0,0,0,479,0,No
8,2,8,0,1,5,0,0,0,0,0,0,0,1612,0,No
13,2,27,0,0,4,0,0,0,0,0,0,0,1010,0,No
8,3,19,0,0,2,0,0,0,0,0,0,0,735,0,No
57,12,96,0,5,10,0,0,0,0,0,0,0,1609,0,No
10,3,23,0,0,2,0,0,0,0,0,0,0,735,0,No
11,2,19,0,1,1,0,0,0,0,0,0,0,334,0,No
3,0,3,0,0,1,0,0,0,0,0,0,0,103,0,No
30,0,55,0,0,1,0,0,0,0,0,0,0,145,0,No
0,0,0,0,0,1,0,0,0,0,0,0,0,145,0,No
1,6,10,0,2,9,0,0,0,0,0,0,0,1210,0,No
1,2,7,0,2,5,0,0,0,0,0,0,0,1451,0,No
1,4,5,0,2,3,0,0,0,0,0,0,0,752,0,No
3,5,20,0,2,7,0,0,0,0,0,0,0,1451,0,No
1,4,9,0,2,5,0,0,0,0,0,0,0,1451,0,No
1,3,5,0,2,5,0,0,0,0,0,0,0,1216,0,No
1,2,7,0,2,8,0,0,0,0,0,0,0,1216,0,No
1,2,1,0,0,4,0,0,0,0,0,0,0,1185,0,No
1,8,18,0,0,5,0,0,0,0,0,0,0,1185,0,No
0,0,0,0,0,1,0,0,0,0,0,0,0,754,0,No
3,9,19,0,0,2,0,0,0,0,0,0,0,152,0,No
2,7,12,0,1,4,0,0,0,0,0,0,0,755,0,No
26,29,81,0,12,10,0,0,0,0,0,0,0,1593,0,No
4,9,7,0,3,6,0,0,0,0,0,0,0,1208,0,No
3,1,12,0,0,4,0,0,0,0,0,0,0,1084,0,No
2,10,11,5,0,4,2,2,-1,0,1,1,1,1010,0,No
0,0,0,0,0,3,0,0,0,0,0,0,0,1216,0,No
0,1,0,0,1,5,0,0,0,0,0,0,0,1616,0,No
8,14,15,21,3,8,18,17,15,15,5,16,28,1580,0,No
13,13,30,0,5,8,0,0,0,0,0,0,0,1172,0,No
7,17,47,0,2,7,0,0,0,0,0,0,0,1612,0,No
30,33,85,0,14,10,0,0,0,0,0,0,0,1622,0,No
7,12,23,0,0,5,0,0,0,0,0,0,0,1010,0,No
7,33,67,0,3,8,0,0,0,0,0,0,0,1493,0,No
3,0,18,0,1,3,0,0,0,0,0,0,0,667,0,No
10,11,46,0,3,6,0,0,0,0,0,0,0,667,0,No
5,0,5,0,0,4,0,0,0,0,0,0,0,1591,0,No
7,10,29,0,1,6,0,0,0,0,0,0,0,1655,0,No
5,7,16,0,1,4,0,0,0,0,0,0,0,682,0,No
11,16,17,0,0,5,0,0,0,0,0,0,0,666,0,No
6,16,49,0,3,6,0,0,0,0,0,0,0,754,0,No
5,13,18,0,0,3,0,0,0,0,0,0,0,158,0,No
3,18,31,8,3,7,3,3,-2,0,1,1,2,754,0,No
1,0,10,0,0,1,0,0,0,0,0,0,0,137,0,No
8,2,19,0,0,5,0,0,0,0,0,0,0,1354,0,No
4,0,4,0,0,6,0,0,0,0,0,0,0,1616,0,No
2,0,6,0,0,4,0,0,0,0,0,0,0,1039,0,No
1,7,3,0,2,4,0,0,0,0,0,0,0,671,0,No
12,7,12,0,1,8,0,0,0,0,0,0,0,1140,0,No
17,2,26,0,0,5,0,0,0,0,0,0,0,1117,0,No
22,7,38,0,1,5,0,0,0,0,0,0,0,1117,0,No
2,0,2,0,1,5,0,0,0,0,0,0,0,1655,0,No
1,4,2,6,0,6,3,3,0,0,1,1,6,1129,0,No
1,0,1,0,0,3,0,0,0,0,0,0,0,1216,0,No
1,0,1,0,0,3,0,0,0,0,0,0,0,1216,0,No
0,0,0,0,1,5,0,0,0,0,0,0,0,1616,0,No
2,0,5,0,0,1,0,0,0,0,0,0,0,138,0,No
2,0,5,0,0,1,0,0,0,0,0,0,0,138,0,No
2,0,2,0,0,1,0,0,0,0,0,0,0,138,0,No
1,0,1,0,0,1,0,0,0,0,0,0,0,138,0,No
0,0,0,0,0,1,0,0,0,0,0,0,0,138,0,Yes
0,0,0,0,0,1,0,0,0,0,0,0,0,47,0,No
0,0,0,0,0,1,0,0,0,0,0,0,0,47,0,No
0,0,0,0,0,1,0,0,0,0,0,0,0,138,0,Yes
0,0,0,2,0,2,1,1,0,0,2,2,2,47,0,Yes
0,0,0,0,0,1,0,0,0,0,0,0,0,138,0,Yes
0,0,0,0,0,2,0,0,0,0,0,0,0,138,0,No
6,0,7,0,0,1,0,0,0,0,0,0,0,100,0,No
1,0,2,0,0,1,0,0,0,0,0,0,0,138,0,No
4,0,13,0,0,1,0,0,0,0,0,0,0,138,0,No
4,2,23,0,0,1,0,0,0,0,0,0,0,138,0,No
6,0,19,0,1,3,0,0,0,0,0,0,0,1144,0,No
5,0,17,0,0,3,0,0,0,0,0,0,0,1144,0,No
4,0,5,0,0,2,0,0,0,0,0,0,0,736,0,No
21,3,29,0,0,1,0,0,0,0,0,0,0,497,0,Yes
0,0,0,0,0,6,0,0,0,0,0,0,0,1290,0,No
9,1,14,0,0,1,0,0,0,0,0,0,0,396,0,No
3,0,4,0,2,1,0,0,0,0,0,0,0,409,0,No
2,4,7,0,0,1,0,0,0,0,0,0,0,224,0,No
4,0,4,0,1,2,0,0,0,0,0,0,0,409,0,No
5,3,5,0,1,3,0,0,0,0,0,0,0,756,0,No
6,2,6,0,1,6,0,0,0,0,0,0,0,1729,0,No
10,2,23,17,2,5,7,7,-3,0,3,5,10,809,0,No
10,3,10,0,0,1,0,0,0,0,0,0,0,252,0,No
24,0,30,0,0,6,0,0,0,0,0,0,0,1696,0,No
0,1,0,0,0,4,0,0,0,0,0,0,0,1690,0,No
1,0,1,0,2,5,0,0,0,0,0,0,0,1729,0,No
4,0,7,0,1,2,0,0,0,0,0,0,0,458,0,No
1,0,1,0,0,6,0,0,0,0,0,0,0,1690,0,No
16,1,18,0,0,5,0,0,0,0,0,0,0,1729,0,No
6,1,6,0,1,5,0,0,0,0,0,0,0,1729,0,No
2,0,2,0,0,6,0,0,0,0,0,0,0,1690,0,No
2,0,5,0,0,5,0,0,0,0,0,0,0,1290,0,No
2,0,3,0,0,5,0,0,0,0,0,0,0,1690,0,No
1,0,1,0,0,5,0,0,0,0,0,0,0,1690,0,No
5,4,10,0,2,4,0,0,0,0,0,0,0,741,0,No
3,1,4,0,0,1,0,0,0,0,0,0,0,391,0,No
1,2,8,0,1,3,0,0,0,0,0,0,0,1553,0,No
3,0,3,0,0,2,0,0,0,0,0,0,0,728,0,No
7,2,12,0,0,4,0,0,0,0,0,0,0,1449,0,No
1,1,4,0,0,3,0,0,0,0,0,0,0,1729,0,No
7,0,12,0,0,5,0,0,0,0,0,0,0,1289,0,No
2,0,2,0,0,5,0,0,0,0,0,0,0,1690,0,No
8,3,28,0,0,4,0,0,0,0,0,0,0,1071,0,No
4,6,6,0,1,7,0,0,0,0,0,0,0,1289,0,No
6,7,7,0,4,3,0,0,0,0,0,0,0,688,0,No
3,5,8,1,3,8,1,1,1,1,1,3,4,1359,0,No
4,6,12,0,3,7,0,0,0,0,0,0,0,1665,0,No
11,4,12,0,3,7,0,0,0,0,0,0,0,1638,0,No
4,7,4,0,4,8,0,0,0,0,0,0,0,1638,0,No
5,6,9,0,7,8,0,0,0,0,0,0,0,1638,0,No
4,5,6,0,0,4,0,0,0,0,0,0,0,822,0,No
11,13,17,0,5,8,0,0,0,0,0,0,0,1690,0,No
3,4,4,0,0,5,0,0,0,0,0,0,0,822,0,No
4,6,12,0,1,8,0,0,0,0,0,0,0,1359,0,No
12,12,61,0,2,4,0,0,0,0,0,0,0,770,0,No
17,8,23,0,7,8,0,0,0,0,0,0,0,1182,0,No
4,8,5,0,3,3,0,0,0,0,0,0,0,688,0,No
6,8,17,0,0,2,0,0,0,0,0,0,0,476,0,No
9,11,19,0,2,6,0,0,0,0,0,0,0,1357,0,No
21,11,46,0,4,3,0,0,0,0,0,0,0,450,0,No
14,16,31,0,2,7,0,0,0,0,0,0,0,1246,0,No
5,5,15,0,0,7,0,0,0,0,0,0,0,1198,0,No
7,3,7,0,1,4,0,0,0,0,0,0,0,770,0,No
11,11,15,0,5,5,0,0,0,0,0,0,0,770,0,No
6,7,11,0,0,7,0,0,0,0,0,0,0,1198,0,No
3,6,4,0,0,1,0,0,0,0,0,0,0,129,0,No
7,5,9,0,1,6,0,0,0,0,0,0,0,1690,0,No
12,14,34,0,2,6,0,0,0,0,0,0,0,1357,0,No
0,0,0,0,0,5,0,0,0,0,0,0,0,1290,0,No
14,13,28,0,3,6,0,0,0,0,0,0,0,1665,0,No
0,0,0,0,0,5,0,0,0,0,0,0,0,1690,0,No
7,4,14,0,4,7,0,0,0,0,0,0,0,1246,0,No
5,5,8,0,0,6,0,0,0,0,0,0,0,1486,0,No
4,1,4,0,1,5,0,0,0,0,0,0,0,1179,0,No
5,1,5,0,3,8,0,0,0,0,0,0,0,1638,0,No
5,1,8,0,3,8,0,0,0,0,0,0,0,1638,0,No
9,1,14,0,1,6,0,0,0,0,0,0,0,1246,0,No
9,0,30,0,0,3,0,0,0,0,0,0,0,1059,0,No
1,0,2,0,0,2,0,0,0,0,0,0,0,170,0,No
1,0,2,0,0,1,0,0,0,0,0,0,0,499,0,No
10,9,84,0,1,5,0,0,0,0,0,0,0,828,0,No
5,3,11,0,1,3,0,0,0,0,0,0,0,745,0,No
6,0,15,0,2,5,0,0,0,0,0,0,0,1729,0,No
9,2,9,0,1,4,0,0,0,0,0,0,0,1686,0,No
8,1,12,0,0,2,0,0,0,0,0,0,0,553,0,No
8,2,8,0,1,5,0,0,0,0,0,0,0,1686,0,No
13,2,27,0,0,4,0,0,0,0,0,0,0,1084,0,No
8,3,19,0,0,2,0,0,0,0,0,0,0,809,0,No
57,12,96,0,5,10,0,0,0,0,0,0,0,1683,0,No
10,3,23,0,0,2,0,0,0,0,0,0,0,809,0,No
11,2,19,0,1,1,0,0,0,0,0,0,0,408,0,No
3,0,3,0,0,1,0,0,0,0,0,0,0,177,0,No
30,0,55,0,0,1,0,0,0,0,0,0,0,219,0,No
0,0,0,0,0,1,0,0,0,0,0,0,0,219,0,No
1,6,10,0,2,9,0,0,0,0,0,0,0,1284,0,No
1,2,7,0,2,5,0,0,0,0,0,0,0,1525,0,No
1,4,5,0,2,3,0,0,0,0,0,0,0,826,0,No
3,5,20,0,2,7,0,0,0,0,0,0,0,1525,0,No
1,4,9,0,2,5,0,0,0,0,0,0,0,1525,0,No
1,3,5,0,2,5,0,0,0,0,0,0,0,1290,0,No
1,2,7,0,2,8,0,0,0,0,0,0,0,1290,0,No
1,2,1,0,0,4,0,0,0,0,0,0,0,1259,0,No
1,8,18,0,0,5,0,0,0,0,0,0,0,1259,0,No
0,0,0,0,0,1,0,0,0,0,0,0,0,828,0,No
3,9,19,0,0,2,0,0,0,0,0,0,0,226,0,No
2,7,12,0,1,4,0,0,0,0,0,0,0,829,0,No
26,29,81,0,12,10,0,0,0,0,0,0,0,1667,0,No
4,9,7,0,3,6,0,0,0,0,0,0,0,1282,0,No
3,1,12,0,0,4,0,0,0,0,0,0,0,1158,0,No
2,10,11,0,0,4,0,0,0,0,0,0,0,1084,0,No
0,0,0,0,0,3,0,0,0,0,0,0,0,1290,0,No
0,1,0,0,1,5,0,0,0,0,0,0,0,1690,0,No
8,14,15,0,3,8,0,0,0,0,0,0,0,1654,0,No
13,13,30,0,5,8,0,0,0,0,0,0,0,1246,0,No
7,17,47,0,2,7,0,0,0,0,0,0,0,1686,0,No
30,33,85,0,14,10,0,0,0,0,0,0,0,1696,0,No
7,12,23,0,0,5,0,0,0,0,0,0,0,1084,0,No
7,33,67,0,3,8,0,0,0,0,0,0,0,1567,0,No
10,11,46,0,3,6,0,0,0,0,0,0,0,741,0,No
5,0,5,0,0,4,0,0,0,0,0,0,0,1665,0,No
7,10,29,0,1,6,0,0,0,0,0,0,0,1729,0,No
5,7,16,0,1,4,0,0,0,0,0,0,0,756,0,No
10,16,16,7,0,5,1,1,-5,0,2,6,7,740,0,No
6,16,49,0,3,6,0,0,0,0,0,0,0,828,0,No
5,13,18,0,0,3,0,0,0,0,0,0,0,232,0,No
3,18,31,0,3,7,0,0,0,0,0,0,0,828,0,No
1,0,10,0,0,1,0,0,0,0,0,0,0,211,0,No
8,2,19,0,0,5,0,0,0,0,0,0,0,1428,0,No
4,0,4,0,0,6,0,0,0,0,0,0,0,1690,0,No
2,0,6,0,0,4,0,0,0,0,0,0,0,1113,0,No
1,7,3,0,2,4,0,0,0,0,0,0,0,745,0,No
12,7,12,0,1,8,0,0,0,0,0,0,0,1214,0,No
17,2,26,0,0,5,0,0,0,0,0,0,0,1191,0,No
22,7,38,0,1,5,0,0,0,0,0,0,0,1191,0,No
2,0,2,0,1,5,0,0,0,0,0,0,0,1729,0,No
1,4,2,0,0,6,0,0,0,0,0,0,0,1203,0,No
1,0,1,0,0,3,0,0,0,0,0,0,0,1290,0,No
1,0,1,0,0,3,0,0,0,0,0,0,0,1290,0,No
0,0,0,0,1,5,0,0,0,0,0,0,0,1690,0,No
2,0,5,0,0,1,0,0,0,0,0,0,0,212,0,No
2,0,5,0,0,1,0,0,0,0,0,0,0,212,0,No
2,0,2,0,0,1,0,0,0,0,0,0,0,212,0,No
1,0,1,0,0,1,0,0,0,0,0,0,0,212,0,No
0,0,0,0,0,1,0,0,0,0,0,0,0,212,0,No
0,0,0,0,0,1,0,0,0,0,0,0,0,121,0,No
0,0,0,0,0,1,0,0,0,0,0,0,0,121,0,No
0,0,0,0,0,1,0,0,0,0,0,0,0,212,0,No
0,0,0,0,0,2,0,0,0,0,0,0,0,121,0,No
0,0,0,0,0,1,0,0,0,0,0,0,0,212,0,No
0,0,0,0,0,2,0,0,0,0,0,0,0,212,0,No
6,0,7,0,0,1,0,0,0,0,0,0,0,174,0,No
1,0,2,0,0,1,0,0,0,0,0,0,0,212,0,No
4,0,13,0,0,1,0,0,0,0,0,0,0,212,0,No
4,2,23,0,0,1,0,0,0,0,0,0,0,212,0,No
6,0,19,0,1,3,0,0,0,0,0,0,0,1193,0,No
5,0,17,0,0,3,0,0,0,0,0,0,0,1193,0,No
4,0,5,0,0,2,0,0,0,0,0,0,0,785,0,No
21,3,29,2,1,1,1,1,0,0,1,3,4,546,0,No
0,0,0,0,0,6,0,0,0,0,0,0,0,1339,0,No
9,1,14,0,0,1,0,0,0,0,0,0,0,445,0,No
3,0,4,0,2,1,0,0,0,0,0,0,0,458,0,No
2,4,7,0,0,1,0,0,0,0,0,0,0,273,0,No
4,0,4,0,1,2,0,0,0,0,0,0,0,458,0,No
5,3,5,0,1,3,0,0,0,0,0,0,0,805,0,No
6,2,6,0,1,6,0,0,0,0,0,0,0,1778,0,No
10,2,23,0,2,5,0,0,0,0,0,0,0,858,0,No
10,3,10,0,0,1,0,0,0,0,0,0,0,301,0,No
24,0,30,0,0,6,0,0,0,0,0,0,0,1745,0,No
0,1,0,0,0,4,0,0,0,0,0,0,0,1739,0,No
1,0,1,0,2,5,0,0,0,0,0,0,0,1778,0,No
4,0,7,0,1,2,0,0,0,0,0,0,0,507,0,No
1,0,1,0,0,6,0,0,0,0,0,0,0,1739,0,No
16,1,18,0,0,5,0,0,0,0,0,0,0,1778,0,No
6,1,6,0,1,5,0,0,0,0,0,0,0,1778,0,No
1,0,1,7,0,5,6,6,5,5,2,4,7,1739,0,No
2,0,2,0,0,6,0,0,0,0,0,0,0,1739,0,No
2,0,5,0,0,5,0,0,0,0,0,0,0,1339,0,No
2,0,3,0,0,5,0,0,0,0,0,0,0,1739,0,No
1,0,1,0,0,5,0,0,0,0,0,0,0,1739,0,No
1,0,1,7,0,5,6,6,5,5,2,4,7,1739,0,No
5,4,10,0,2,4,0,0,0,0,0,0,0,790,0,No
3,1,4,0,0,1,0,0,0,0,0,0,0,440,0,No
1,2,8,0,1,3,0,0,0,0,0,0,0,1602,0,No
3,0,3,0,0,2,0,0,0,0,0,0,0,777,0,No
7,2,12,0,0,4,0,0,0,0,0,0,0,1498,0,No
1,1,4,0,0,3,0,0,0,0,0,0,0,1778,0,No
7,0,12,0,0,5,0,0,0,0,0,0,0,1338,0,No
2,0,2,0,0,5,0,0,0,0,0,0,0,1739,0,No
8,3,28,0,0,4,0,0,0,0,0,0,0,1120,0,No
4,6,6,0,1,7,0,0,0,0,0,0,0,1338,0,No
6,7,7,0,4,3,0,0,0,0,0,0,0,737,0,No
3,5,8,0,3,8,0,0,0,0,0,0,0,1408,0,No
4,6,12,0,3,7,0,0,0,0,0,0,0,1714,0,No
11,4,12,0,3,7,0,0,0,0,0,0,0,1687,0,No
4,7,4,0,4,8,0,0,0,0,0,0,0,1687,0,No
5,6,9,0,7,8,0,0,0,0,0,0,0,1687,0,No
4,5,6,0,0,4,0,0,0,0,0,0,0,871,0,No
11,13,17,0,5,8,0,0,0,0,0,0,0,1739,0,No
3,4,4,0,0,5,0,0,0,0,0,0,0,871,0,No
4,6,12,0,1,8,0,0,0,0,0,0,0,1408,0,No
12,12,61,0,2,4,0,0,0,0,0,0,0,819,0,No
17,8,23,0,7,8,0,0,0,0,0,0,0,1231,0,No
4,8,5,0,3,3,0,0,0,0,0,0,0,737,0,No
6,8,17,0,0,2,0,0,0,0,0,0,0,525,0,No
9,11,19,0,2,6,0,0,0,0,0,0,0,1406,0,No
21,11,46,0,4,3,0,0,0,0,0,0,0,499,0,No
14,16,31,0,2,7,0,0,0,0,0,0,0,1295,0,No
5,5,15,0,0,7,0,0,0,0,0,0,0,1247,0,No
7,3,7,0,1,4,0,0,0,0,0,0,0,819,0,No
11,11,15,0,5,5,0,0,0,0,0,0,0,819,0,No
6,7,11,0,0,7,0,0,0,0,0,0,0,1247,0,No
3,6,4,0,0,1,0,0,0,0,0,0,0,178,0,No
7,5,9,0,1,6,0,0,0,0,0,0,0,1739,0,No
12,14,34,0,2,6,0,0,0,0,0,0,0,1406,0,No
0,0,0,0,0,5,0,0,0,0,0,0,0,1339,0,No
14,13,28,0,3,6,0,0,0,0,0,0,0,1714,0,No
0,0,0,0,0,5,0,0,0,0,0,0,0,1739,0,No
7,4,14,0,4,7,0,0,0,0,0,0,0,1295,0,No
5,5,8,0,0,6,0,0,0,0,0,0,0,1535,0,No
4,1,4,0,1,5,0,0,0,0,0,0,0,1228,0,No
5,1,5,0,3,8,0,0,0,0,0,0,0,1687,0,No
5,1,8,0,3,8,0,0,0,0,0,0,0,1687,0,No
9,1,14,0,1,6,0,0,0,0,0,0,0,1295,0,No
9,0,30,0,0,3,0,0,0,0,0,0,0,1108,0,No
1,0,2,0,0,2,0,0,0,0,0,0,0,219,0,No
1,0,2,0,0,1,0,0,0,0,0,0,0,548,0,No
10,9,84,0,1,5,0,0,0,0,0,0,0,877,0,No
5,3,11,0,1,3,0,0,0,0,0,0,0,794,0,No
6,0,15,0,2,5,0,0,0,0,0,0,0,1778,0,No
9,2,9,0,1,4,0,0,0,0,0,0,0,1735,0,No
8,1,12,0,0,2,0,0,0,0,0,0,0,602,0,No
8,2,8,0,1,5,0,0,0,0,0,0,0,1735,0,No
13,2,27,0,0,4,0,0,0,0,0,0,0,1133,0,No
8,3,19,0,0,2,0,0,0,0,0,0,0,858,0,No
57,12,96,4,5,11,3,3,2,2,1,1,1,1732,0,No
10,3,23,0,0,2,0,0,0,0,0,0,0,858,0,No
11,2,19,0,1,1,0,0,0,0,0,0,0,457,0,No
3,0,3,0,0,1,0,0,0,0,0,0,0,226,0,No
30,0,55,0,0,1,0,0,0,0,0,0,0,268,0,No
0,0,0,0,0,1,0,0,0,0,0,0,0,268,0,No
1,6,10,0,2,9,0,0,0,0,0,0,0,1333,0,No
1,2,7,0,2,5,0,0,0,0,0,0,0,1574,0,No
1,4,5,0,2,3,0,0,0,0,0,0,0,875,0,No
3,7,22,14,2,7,13,12,12,12,2,3,3,1574,0,No
1,4,9,0,2,5,0,0,0,0,0,0,0,1574,0,No
1,3,5,0,2,5,0,0,0,0,0,0,0,1339,0,No
1,2,7,0,2,8,0,0,0,0,0,0,0,1339,0,No
1,2,1,0,0,4,0,0,0,0,0,0,0,1308,0,No
1,8,18,0,0,5,0,0,0,0,0,0,0,1308,0,No
0,0,0,0,0,1,0,0,0,0,0,0,0,877,0,No
3,9,19,0,0,2,0,0,0,0,0,0,0,275,0,No
2,7,12,0,1,4,0,0,0,0,0,0,0,878,0,No
26,29,81,2,12,11,1,1,0,0,1,3,4,1716,0,No
4,9,7,0,3,6,0,0,0,0,0,0,0,1331,0,No
3,1,12,0,0,4,0,0,0,0,0,0,0,1207,0,No
2,10,11,0,0,4,0,0,0,0,0,0,0,1133,0,No
0,0,0,0,0,3,0,0,0,0,0,0,0,1339,0,No
0,1,0,0,1,5,0,0,0,0,0,0,0,1739,0,No
8,14,15,0,3,8,0,0,0,0,0,0,0,1703,0,No
13,13,30,0,5,8,0,0,0,0,0,0,0,1295,0,No
7,17,47,0,2,7,0,0,0,0,0,0,0,1735,0,No
30,33,85,0,14,10,0,0,0,0,0,0,0,1745,0,No
7,12,23,0,0,5,0,0,0,0,0,0,0,1133,0,No
7,33,67,0,3,8,0,0,0,0,0,0,0,1616,0,No
3,0,18,114,1,3,114,114,114,114,1,2,2,790,0,No
10,11,46,0,3,6,0,0,0,0,0,0,0,790,0,Yes
5,0,5,0,0,4,0,0,0,0,0,0,0,1714,0,No
7,10,29,0,1,6,0,0,0,0,0,0,0,1778,0,No
5,7,16,0,1,4,0,0,0,0,0,0,0,805,0,No
10,16,16,0,0,5,0,0,0,0,0,0,0,789,0,No
6,16,52,33,3,7,28,28,23,23,2,4,7,877,0,No
5,13,18,0,0,3,0,0,0,0,0,0,0,281,0,No
3,18,31,0,3,7,0,0,0,0,0,0,0,877,0,No
1,0,10,0,0,1,0,0,0,0,0,0,0,260,0,No
8,2,19,0,0,5,0,0,0,0,0,0,0,1477,0,No
4,0,4,0,0,6,0,0,0,0,0,0,0,1739,0,No
2,0,6,0,0,4,0,0,0,0,0,0,0,1162,0,No
1,7,3,0,2,4,0,0,0,0,0,0,0,794,0,No
12,7,12,0,1,8,0,0,0,0,0,0,0,1263,0,No
17,2,26,0,0,5,0,0,0,0,0,0,0,1240,0,No
22,7,38,0,1,5,0,0,0,0,0,0,0,1240,0,No
2,0,2,0,1,5,0,0,0,0,0,0,0,1778,0,No
1,4,2,0,0,6,0,0,0,0,0,0,0,1252,0,No
1,0,1,0,0,3,0,0,0,0,0,0,0,1339,0,No
1,0,1,0,0,3,0,0,0,0,0,0,0,1339,0,No
0,0,0,0,1,5,0,0,0,0,0,0,0,1739,0,No
2,0,5,0,0,1,0,0,0,0,0,0,0,261,0,No
2,0,6,3,0,2,3,3,3,3,2,6,6,261,0,No
2,0,2,0,0,1,0,0,0,0,0,0,0,261,0,No
1,0,1,0,0,1,0,0,0,0,0,0,0,261,0,No
0,0,0,0,0,1,0,0,0,0,0,0,0,261,0,No
0,0,0,0,0,1,0,0,0,0,0,0,0,170,0,No
0,0,0,0,0,1,0,0,0,0,0,0,0,170,0,No
0,0,0,0,0,1,0,0,0,0,0,0,0,261,0,No
0,0,0,0,0,2,0,0,0,0,0,0,0,170,0,No
0,0,0,0,0,1,0,0,0,0,0,0,0,261,0,No
0,0,0,16,0,3,14,14,12,12,2,6,6,261,0,No
6,0,7,0,0,1,0,0,0,0,0,0,0,223,0,No
1,0,2,0,0,1,0,0,0,0,0,0,0,261,0,No
4,0,13,0,0,1,0,0,0,0,0,0,0,261,0,No
4,2,23,0,0,1,0,0,0,0,0,0,0,261,0,No
6,0,19,0,1,3,0,0,0,0,0,0,0,1239,0,No
5,0,17,0,0,3,0,0,0,0,0,0,0,1239,0,No
4,0,5,0,0,2,0,0,0,0,0,0,0,831,0,No
21,3,29,0,1,1,0,0,0,0,0,0,0,592,0,No
0,0,0,0,0,6,0,0,0,0,0,0,0,1385,0,No
9,1,14,0,0,1,0,0,0,0,0,0,0,491,0,No
3,0,4,0,2,1,0,0,0,0,0,0,0,504,0,No
2,4,7,0,0,1,0,0,0,0,0,0,0,319,0,No
4,0,4,0,1,2,0,0,0,0,0,0,0,504,0,No
5,3,5,0,1,3,0,0,0,0,0,0,0,851,0,No
6,2,6,0,1,6,0,0,0,0,0,0,0,1824,0,No
10,2,23,0,2,5,0,0,0,0,0,0,0,904,0,No
10,3,10,0,0,1,0,0,0,0,0,0,0,347,0,No
24,0,30,0,0,6,0,0,0,0,0,0,0,1791,0,No
0,1,0,0,0,4,0,0,0,0,0,0,0,1785,0,No
1,0,1,0,2,5,0,0,0,0,0,0,0,1824,0,No
4,0,7,0,1,2,0,0,0,0,0,0,0,553,0,No
1,0,1,0,0,6,0,0,0,0,0,0,0,1785,0,No
16,1,18,0,0,5,0,0,0,0,0,0,0,1824,0,No
6,1,6,0,1,5,0,0,0,0,0,0,0,1824,0,No
1,0,1,0,0,5,0,0,0,0,0,0,0,1785,0,No
2,0,2,0,0,6,0,0,0,0,0,0,0,1785,0,No
2,0,5,0,0,5,0,0,0,0,0,0,0,1385,0,No
2,0,3,0,0,5,0,0,0,0,0,0,0,1785,0,No
1,0,1,0,0,5,0,0,0,0,0,0,0,1785,0,No
1,0,1,0,0,5,0,0,0,0,0,0,0,1785,0,No
5,4,10,0,2,4,0,0,0,0,0,0,0,836,0,No
3,1,4,0,0,1,0,0,0,0,0,0,0,486,0,No
1,2,8,0,1,3,0,0,0,0,0,0,0,1648,0,No
3,0,3,0,0,2,0,0,0,0,0,0,0,823,0,No
7,2,12,0,0,4,0,0,0,0,0,0,0,1544,0,No
1,1,4,0,0,3,0,0,0,0,0,0,0,1824,0,No
7,0,12,0,0,5,0,0,0,0,0,0,0,1384,0,No
2,0,2,0,0,5,0,0,0,0,0,0,0,1785,0,No
8,3,28,0,0,4,0,0,0,0,0,0,0,1166,0,No
4,6,6,0,1,7,0,0,0,0,0,0,0,1384,0,No
6,7,7,0,4,3,0,0,0,0,0,0,0,783,0,No
3,5,8,0,3,8,0,0,0,0,0,0,0,1454,0,No
4,6,12,0,3,7,0,0,0,0,0,0,0,1760,0,No
11,4,12,0,3,7,0,0,0,0,0,0,0,1733,0,No
4,7,4,0,4,8,0,0,0,0,0,0,0,1733,0,No
5,6,9,0,7,8,0,0,0,0,0,0,0,1733,0,No
4,5,6,0,0,4,0,0,0,0,0,0,0,917,0,No
11,13,17,0,5,8,0,0,0,0,0,0,0,1785,0,No
3,4,4,0,0,5,0,0,0,0,0,0,0,917,0,No
4,6,12,0,1,8,0,0,0,0,0,0,0,1454,0,No
12,12,61,0,2,4,0,0,0,0,0,0,0,865,0,No
17,8,23,0,7,8,0,0,0,0,0,0,0,1277,0,No
4,8,5,0,3,3,0,0,0,0,0,0,0,783,0,No
6,8,17,0,0,2,0,0,0,0,0,0,0,571,0,No
9,11,19,0,2,6,0,0,0,0,0,0,0,1452,0,No
21,11,46,0,4,3,0,0,0,0,0,0,0,545,0,No
14,16,31,0,2,7,0,0,0,0,0,0,0,1341,0,No
5,5,15,0,0,7,0,0,0,0,0,0,0,1293,0,No
7,3,7,0,1,4,0,0,0,0,0,0,0,865,0,No
11,11,15,0,5,5,0,0,0,0,0,0,0,865,0,No
6,7,11,0,0,7,0,0,0,0,0,0,0,1293,0,No
3,6,4,0,0,1,0,0,0,0,0,0,0,224,0,No
7,5,9,0,1,6,0,0,0,0,0,0,0,1785,0,No
12,14,34,0,2,6,0,0,0,0,0,0,0,1452,0,No
0,0,0,0,0,5,0,0,0,0,0,0,0,1385,0,No
14,13,28,0,3,6,0,0,0,0,0,0,0,1760,0,No
0,0,0,0,0,5,0,0,0,0,0,0,0,1785,0,No
7,4,14,0,4,7,0,0,0,0,0,0,0,1341,0,No
5,5,8,0,0,6,0,0,0,0,0,0,0,1581,0,No
4,1,4,0,1,5,0,0,0,0,0,0,0,1274,0,No
5,1,5,0,3,8,0,0,0,0,0,0,0,1733,0,No
5,1,8,0,3,8,0,0,0,0,0,0,0,1733,0,No
9,1,14,0,1,6,0,0,0,0,0,0,0,1341,0,No
9,0,30,0,0,3,0,0,0,0,0,0,0,1154,0,No
1,0,2,0,0,2,0,0,0,0,0,0,0,265,0,No
1,0,2,0,0,1,0,0,0,0,0,0,0,594,0,No
10,9,84,0,1,5,0,0,0,0,0,0,0,923,0,Yes
5,3,11,0,1,3,0,0,0,0,0,0,0,840,0,No
6,0,15,0,2,5,0,0,0,0,0,0,0,1824,0,No
9,2,9,0,1,4,0,0,0,0,0,0,0,1781,0,No
8,1,12,0,0,2,0,0,0,0,0,0,0,648,0,No
8,2,8,0,1,5,0,0,0,0,0,0,0,1781,0,No
13,2,27,0,0,4,0,0,0,0,0,0,0,1179,0,No
8,3,19,0,0,2,0,0,0,0,0,0,0,904,0,No
57,12,96,0,5,11,0,0,0,0,0,0,0,1778,0,No
10,3,23,0,0,2,0,0,0,0,0,0,0,904,0,No
11,2,19,0,1,1,0,0,0,0,0,0,0,503,0,No
3,0,3,0,0,1,0,0,0,0,0,0,0,272,0,No
30,0,55,0,0,1,0,0,0,0,0,0,0,314,0,No
0,0,0,0,0,1,0,0,0,0,0,0,0,314,0,No
1,6,10,0,2,9,0,0,0,0,0,0,0,1379,0,No
1,2,7,0,2,5,0,0,0,0,0,0,0,1620,0,No
1,4,5,0,2,3,0,0,0,0,0,0,0,921,0,No
3,7,22,0,2,7,0,0,0,0,0,0,0,1620,0,No
1,4,9,0,2,5,0,0,0,0,0,0,0,1620,0,No
1,3,5,0,2,5,0,0,0,0,0,0,0,1385,0,No
1,2,7,0,2,8,0,0,0,0,0,0,0,1385,0,No
1,2,1,0,0,4,0,0,0,0,0,0,0,1354,0,No
1,8,18,0,0,5,0,0,0,0,0,0,0,1354,0,No
0,0,0,0,0,1,0,0,0,0,0,0,0,923,0,No
3,9,19,0,0,2,0,0,0,0,0,0,0,321,0,No
2,7,12,0,1,4,0,0,0,0,0,0,0,924,0,No
26,29,81,0,12,11,0,0,0,0,0,0,0,1762,0,Yes
4,9,7,0,3,6,0,0,0,0,0,0,0,1377,0,No
3,1,12,0,0,4,0,0,0,0,0,0,0,1253,0,Yes
2,10,11,0,0,4,0,0,0,0,0,0,0,1179,0,No
0,0,0,0,0,3,0,0,0,0,0,0,0,1385,0,No
0,1,0,0,1,5,0,0,0,0,0,0,0,1785,0,No
8,14,15,0,3,8,0,0,0,0,0,0,0,1749,0,No
13,13,30,0,5,8,0,0,0,0,0,0,0,1341,0,No
7,17,47,0,2,7,0,0,0,0,0,0,0,1781,0,No
30,33,85,0,14,10,0,0,0,0,0,0,0,1791,0,Yes
7,12,23,0,0,5,0,0,0,0,0,0,0,1179,0,No
7,33,67,0,3,8,0,0,0,0,0,0,0,1662,0,No
3,0,18,0,1,3,0,0,0,0,0,0,0,836,0,No
5,0,5,0,0,4,0,0,0,0,0,0,0,1760,0,No
7,10,29,0,1,6,0,0,0,0,0,0,0,1824,0,No
5,7,16,0,1,4,0,0,0,0,0,0,0,851,0,No
10,16,16,0,0,5,0,0,0,0,0,0,0,835,0,No
6,16,55,61,3,7,41,39,21,21,3,8,18,923,0,No
5,13,18,0,0,3,0,0,0,0,0,0,0,327,0,No
3,18,31,0,3,7,0,0,0,0,0,0,0,923,0,No
1,0,10,0,0,1,0,0,0,0,0,0,0,306,0,No
8,2,19,0,0,5,0,0,0,0,0,0,0,1523,0,No
4,0,4,0,0,6,0,0,0,0,0,0,0,1785,0,No
2,0,6,0,0,4,0,0,0,0,0,0,0,1208,0,No
1,7,3,0,2,4,0,0,0,0,0,0,0,840,0,No
12,7,12,0,1,8,0,0,0,0,0,0,0,1309,0,No
17,2,26,0,0,5,0,0,0,0,0,0,0,1286,0,No
22,7,38,0,1,5,0,0,0,0,0,0,0,1286,0,No
2,0,2,0,1,5,0,0,0,0,0,0,0,1824,0,No
1,4,2,0,0,6,0,0,0,0,0,0,0,1298,0,No
1,0,1,0,0,3,0,0,0,0,0,0,0,1385,0,No
1,0,1,0,0,3,0,0,0,0,0,0,0,1385,0,No
0,0,0,0,1,5,0,0,0,0,0,0,0,1785,0,No
2,0,5,0,0,1,0,0,0,0,0,0,0,307,0,No
2,0,6,0,0,2,0,0,0,0,0,0,0,307,0,No
2,0,2,0,0,1,0,0,0,0,0,0,0,307,0,No
1,0,1,0,0,1,0,0,0,0,0,0,0,307,0,No
0,0,0,0,0,1,0,0,0,0,0,0,0,307,0,No
0,0,0,0,0,1,0,0,0,0,0,0,0,216,0,No
0,0,0,0,0,1,0,0,0,0,0,0,0,216,0,No
0,0,0,0,0,1,0,0,0,0,0,0,0,307,0,No
0,0,0,0,0,2,0,0,0,0,0,0,0,216,0,No
0,0,0,0,0,1,0,0,0,0,0,0,0,307,0,No
0,0,0,0,0,3,0,0,0,0,0,0,0,307,0,No
6,0,7,0,0,1,0,0,0,0,0,0,0,269,0,No
1,0,2,0,0,1,0,0,0,0,0,0,0,307,0,No
4,0,13,0,0,1,0,0,0,0,0,0,0,307,0,No
4,2,23,0,0,1,0,0,0,0,0,0,0,307,0,No
6,0,19,0,1,3,0,0,0,0,0,0,0,1323,0,No
5,0,17,0,0,3,0,0,0,0,0,0,0,1323,0,No
4,0,5,0,0,2,0,0,0,0,0,0,0,915,0,No
21,3,29,0,1,1,0,0,0,0,0,0,0,676,0,No
0,0,0,0,0,6,0,0,0,0,0,0,0,1469,0,No
9,1,14,0,0,1,0,0,0,0,0,0,0,575,0,No
3,0,4,0,2,1,0,0,0,0,0,0,0,588,0,No
2,4,7,0,0,1,0,0,0,0,0,0,0,403,0,No
4,0,4,0,1,2,0,0,0,0,0,0,0,588,0,No
5,3,5,0,1,3,0,0,0,0,0,0,0,935,0,No
6,2,6,0,1,6,0,0,0,0,0,0,0,1908,0,No
10,2,23,0,2,5,0,0,0,0,0,0,0,988,0,No
10,3,10,0,0,1,0,0,0,0,0,0,0,431,0,No
24,0,30,0,0,6,0,0,0,0,0,0,0,1875,0,No
0,1,0,0,0,4,0,0,0,0,0,0,0,1869,0,No
1,0,1,0,2,5,0,0,0,0,0,0,0,1908,0,No
4,0,7,0,1,2,0,0,0,0,0,0,0,637,0,No
1,0,1,0,0,6,0,0,0,0,0,0,0,1869,0,No
16,1,18,0,0,5,0,0,0,0,0,0,0,1908,0,No
6,1,6,0,1,5,0,0,0,0,0,0,0,1908,0,No
1,0,1,0,0,5,0,0,0,0,0,0,0,1869,0,No
2,0,2,0,0,6,0,0,0,0,0,0,0,1869,0,No
2,0,5,0,0,5,0,0,0,0,0,0,0,1469,0,No
2,0,3,0,0,5,0,0,0,0,0,0,0,1869,0,No
1,0,1,0,0,5,0,0,0,0,0,0,0,1869,0,No
1,0,1,0,0,5,0,0,0,0,0,0,0,1869,0,No
5,4,10,0,2,4,0,0,0,0,0,0,0,920,0,No
3,1,4,0,0,1,0,0,0,0,0,0,0,570,0,No
1,2,8,0,1,3,0,0,0,0,0,0,0,1732,0,No
3,0,3,0,0,2,0,0,0,0,0,0,0,907,0,No
7,2,12,0,0,4,0,0,0,0,0,0,0,1628,0,No
1,1,4,0,0,3,0,0,0,0,0,0,0,1908,0,No
7,0,12,0,0,5,0,0,0,0,0,0,0,1468,0,No
2,0,2,0,0,5,0,0,0,0,0,0,0,1869,0,No
8,3,28,0,0,4,0,0,0,0,0,0,0,1250,0,No
4,6,6,0,1,7,0,0,0,0,0,0,0,1468,0,No
6,7,7,0,4,3,0,0,0,0,0,0,0,867,0,No
3,5,8,0,3,8,0,0,0,0,0,0,0,1538,0,No
4,6,12,0,3,7,0,0,0,0,0,0,0,1844,0,No
9,4,10,46,3,7,2,2,-42,0,3,15,23,1817,0,No
4,7,4,0,4,8,0,0,0,0,0,0,0,1817,0,No
5,6,9,0,7,8,0,0,0,0,0,0,0,1817,0,No
4,5,6,0,0,4,0,0,0,0,0,0,0,1001,0,No
12,13,18,15,5,9,12,12,9,9,2,7,14,1869,0,No
3,4,4,0,0,5,0,0,0,0,0,0,0,1001,0,No
4,6,12,0,1,8,0,0,0,0,0,0,0,1538,0,No
12,12,61,1,3,5,1,1,1,1,1,1,1,949,0,No
17,8,23,0,7,8,0,0,0,0,0,0,0,1361,0,No
4,8,5,0,3,3,0,0,0,0,0,0,0,867,0,No
6,8,17,0,0,2,0,0,0,0,0,0,0,655,0,No
9,11,19,0,2,6,0,0,0,0,0,0,0,1536,0,No
21,11,46,0,4,3,0,0,0,0,0,0,0,629,0,No
14,16,31,0,2,7,0,0,0,0,0,0,0,1425,0,No
5,5,15,0,0,7,0,0,0,0,0,0,0,1377,0,No
7,3,7,0,1,4,0,0,0,0,0,0,0,949,0,No
11,11,15,0,5,5,0,0,0,0,0,0,0,949,0,No
6,7,11,0,0,7,0,0,0,0,0,0,0,1377,0,No
3,6,4,0,0,1,0,0,0,0,0,0,0,308,0,No
7,5,9,0,1,6,0,0,0,0,0,0,0,1869,0,No
12,14,34,0,2,6,0,0,0,0,0,0,0,1536,0,No
0,0,0,0,0,5,0,0,0,0,0,0,0,1469,0,No
14,13,28,0,3,6,0,0,0,0,0,0,0,1844,0,No
0,0,0,0,0,5,0,0,0,0,0,0,0,1869,0,No
7,4,14,0,4,7,0,0,0,0,0,0,0,1425,0,No
21,18,31,23,2,9,22,22,21,21,2,7,14,1733,0,No
5,5,8,0,0,6,0,0,0,0,0,0,0,1665,0,No
4,1,4,0,1,5,0,0,0,0,0,0,0,1358,0,No
1,4,4,124,0,1,95,94,66,94,3,9,16,59,0,No
5,1,5,0,3,8,0,0,0,0,0,0,0,1817,0,No
5,1,8,0,3,8,0,0,0,0,0,0,0,1817,0,No
9,1,14,0,1,6,0,0,0,0,0,0,0,1425,0,No
9,0,30,0,0,3,0,0,0,0,0,0,0,1238,0,No
1,0,2,0,0,2,0,0,0,0,0,0,0,349,0,No
1,0,2,0,0,1,0,0,0,0,0,0,0,678,0,No
10,9,85,19,2,5,14,14,9,9,1,2,2,1007,0,No
5,3,11,0,1,3,0,0,0,0,0,0,0,924,0,No
6,0,15,0,2,5,0,0,0,0,0,0,0,1908,0,No
9,2,9,0,1,4,0,0,0,0,0,0,0,1865,0,No
8,1,12,0,0,2,0,0,0,0,0,0,0,732,0,No
8,2,8,0,1,5,0,0,0,0,0,0,0,1865,0,No
13,2,27,0,0,4,0,0,0,0,0,0,0,1263,0,No
8,3,19,0,0,2,0,0,0,0,0,0,0,988,0,No
57,12,96,0,5,11,0,0,0,0,0,0,0,1862,0,No
10,3,23,0,0,2,0,0,0,0,0,0,0,988,0,No
11,2,19,0,1,1,0,0,0,0,0,0,0,587,0,No
3,0,3,0,0,1,0,0,0,0,0,0,0,356,0,No
30,0,55,0,0,1,0,0,0,0,0,0,0,398,0,No
0,0,0,0,0,1,0,0,0,0,0,0,0,398,0,No
1,6,10,0,2,9,0,0,0,0,0,0,0,1463,0,No
1,2,7,0,2,5,0,0,0,0,0,0,0,1704,0,No
1,4,5,0,2,3,0,0,0,0,0,0,0,1005,0,No
3,7,22,0,2,7,0,0,0,0,0,0,0,1704,0,No
1,4,9,0,2,5,0,0,0,0,0,0,0,1704,0,No
1,3,5,0,2,5,0,0,0,0,0,0,0,1469,0,No
1,2,7,0,2,8,0,0,0,0,0,0,0,1469,0,No
1,2,1,0,0,4,0,0,0,0,0,0,0,1438,0,No
1,8,18,0,0,5,0,0,0,0,0,0,0,1438,0,No
0,0,0,0,0,1,0,0,0,0,0,0,0,1007,0,No
3,9,19,0,0,2,0,0,0,0,0,0,0,405,0,No
2,7,12,0,1,4,0,0,0,0,0,0,0,1008,0,No
26,29,81,6,13,11,3,3,0,0,2,8,13,1846,0,Yes
2,10,11,0,0,4,0,0,0,0,0,0,0,1263,0,No
0,0,0,0,0,3,0,0,0,0,0,0,0,1469,0,No
0,1,0,0,1,5,0,0,0,0,0,0,0,1869,0,No
8,14,15,0,3,8,0,0,0,0,0,0,0,1833,0,No
13,13,30,0,5,8,0,0,0,0,0,0,0,1425,0,No
7,17,47,0,2,7,0,0,0,0,0,0,0,1865,0,No
30,33,85,26,16,10,18,9,10,8,6,25,38,1875,0,Yes
7,12,23,0,0,5,0,0,0,0,0,0,0,1263,0,No
7,33,67,0,3,8,0,0,0,0,0,0,0,1746,0,No
3,0,18,0,1,3,0,0,0,0,0,0,0,920,0,No
5,0,5,0,0,4,0,0,0,0,0,0,0,1844,0,No
7,10,29,0,1,6,0,0,0,0,0,0,0,1908,0,No
5,7,16,0,1,4,0,0,0,0,0,0,0,935,0,No
10,16,16,0,0,5,0,0,0,0,0,0,0,919,0,No
6,16,55,0,3,7,0,0,0,0,0,0,0,1007,0,No
5,13,18,0,0,3,0,0,0,0,0,0,0,411,0,No
3,18,31,0,3,7,0,0,0,0,0,0,0,1007,0,No
1,0,10,0,0,1,0,0,0,0,0,0,0,390,0,No
8,2,19,0,0,5,0,0,0,0,0,0,0,1607,0,No
4,0,4,0,0,6,0,0,0,0,0,0,0,1869,0,No
2,0,6,0,0,4,0,0,0,0,0,0,0,1292,0,No
1,7,3,0,2,4,0,0,0,0,0,0,0,924,0,No
12,7,12,0,1,8,0,0,0,0,0,0,0,1393,0,Yes
17,2,26,0,0,5,0,0,0,0,0,0,0,1370,0,No
22,7,38,0,1,5,0,0,0,0,0,0,0,1370,0,No
2,0,2,0,1,5,0,0,0,0,0,0,0,1908,0,No
1,4,2,0,0,6,0,0,0,0,0,0,0,1382,0,No
1,0,1,0,0,3,0,0,0,0,0,0,0,1469,0,No
1,0,1,0,0,3,0,0,0,0,0,0,0,1469,0,No
0,0,0,0,1,5,0,0,0,0,0,0,0,1869,0,No
2,0,5,0,0,1,0,0,0,0,0,0,0,391,0,No
2,0,6,0,0,2,0,0,0,0,0,0,0,391,0,No
2,0,2,0,0,1,0,0,0,0,0,0,0,391,0,No
1,0,1,0,0,1,0,0,0,0,0,0,0,391,0,No
0,0,0,0,0,1,0,0,0,0,0,0,0,391,0,No
0,0,0,0,0,1,0,0,0,0,0,0,0,300,0,No
0,0,0,0,0,1,0,0,0,0,0,0,0,300,0,No
0,0,0,0,0,1,0,0,0,0,0,0,0,391,0,No
0,0,0,0,0,2,0,0,0,0,0,0,0,300,0,No
0,0,0,0,0,1,0,0,0,0,0,0,0,391,0,No
0,0,0,0,0,3,0,0,0,0,0,0,0,391,0,No
6,0,7,0,0,1,0,0,0,0,0,0,0,353,0,No
1,0,2,0,0,1,0,0,0,0,0,0,0,391,0,No
4,0,13,0,0,1,0,0,0,0,0,0,0,391,0,No
4,2,23,0,0,1,0,0,0,0,0,0,0,391,0,No
2,0,6,144,0,3,122,101,100,101,35,333,2613,237,0,No
2,0,9,199,0,3,150,99,101,99,47,366,2656,237,0,No
11,0,12,268,0,3,175,35,82,35,63,457,2940,822,0,No
2,1,2,281,0,3,163,35,45,35,67,476,2679,822,0,No
8,1,13,323,0,4,217,40,111,35,68,443,2899,822,0,No
1,1,10,211,0,3,152,88,93,88,48,406,2812,767,0,No
0,1,0,111,0,3,70,14,29,14,43,380,2524,783,0,No
2,0,2,604,0,3,424,164,244,123,88,582,3205,822,0,No
3,1,4,190,0,3,120,34,50,34,49,416,2839,383,0,No
13,2,13,255,0,3,184,66,113,66,47,409,2812,674,0,No
6,0,6,279,0,3,169,35,59,35,56,404,2439,822,0,No
6,8,35,298,0,2,241,195,184,195,24,237,1920,165,0,No
5,10,24,611,0,3,411,235,211,235,53,430,2991,282,0,No
11,6,17,837,0,4,529,114,221,109,72,534,3333,783,0,No
3,7,9,5435,0,4,2800,374,165,374,162,919,4206,752,0,No
4,4,7,624,0,3,369,301,114,301,36,338,2696,191,0,No
9,13,11,1455,0,4,845,301,235,301,93,616,3650,647,0,No
0,2,0,439,0,4,242,96,45,86,51,435,3038,783,0,No
6,13,27,617,0,4,461,371,305,371,42,358,2749,177,0,No
1,4,2,182,0,4,126,63,70,63,34,333,2672,367,0,No
25,18,46,1541,0,4,1048,555,555,555,60,474,3108,275,0,Yes
2,5,2,176,0,3,138,103,100,103,34,344,2714,268,0,No
9,7,13,481,0,3,334,187,187,187,52,404,2866,367,0,No
3,1,3,143,0,3,87,15,31,14,46,381,2512,783,0,No
2,3,7,151,0,1,109,74,67,74,22,189,1314,144,0,No
3,0,3,128,0,3,100,54,72,54,50,436,2810,438,0,No
2,2,8,159,0,3,111,60,63,60,38,370,2715,618,0,No
2,2,5,145,0,3,104,51,63,51,36,361,2712,618,0,No
2,3,6,145,0,3,103,51,61,51,43,386,2764,618,0,No
2,5,12,202,0,3,137,51,72,51,54,429,2834,618,0,Yes
2,3,6,301,0,3,186,87,71,87,47,415,2812,383,0,No
2,3,8,255,0,6,163,87,71,87,49,427,2821,383,0,No
2,3,9,191,0,3,133,51,75,51,41,381,2753,618,0,No
1,7,22,324,0,4,223,71,122,71,49,429,2859,352,0,No
8,12,15,1063,0,5,643,143,223,143,88,606,3359,747,0,No
2,11,31,673,0,4,408,156,143,156,47,396,2785,338,0,No
11,16,46,1317,0,4,847,200,377,200,140,880,3821,760,0,No
7,23,43,899,0,5,587,94,275,70,107,699,3453,660,0,Yes
4,4,4,161,0,4,116,82,71,82,34,330,2640,457,0,No
2,2,5,123,0,3,88,34,53,34,50,404,2794,383,0,No
8,7,14,406,0,4,281,131,156,131,68,519,3120,598,0,No
2,0,6,0,0,3,0,0,0,0,0,0,0,260,0,No
2,0,9,0,0,3,0,0,0,0,0,0,0,260,0,No
11,0,12,0,0,3,0,0,0,0,0,0,0,845,0,No
2,1,2,0,0,3,0,0,0,0,0,0,0,845,0,No
8,1,13,0,0,4,0,0,0,0,0,0,0,845,0,No
1,1,10,0,0,3,0,0,0,0,0,0,0,790,0,No
0,1,0,0,0,3,0,0,0,0,0,0,0,806,0,No
2,0,2,0,0,3,0,0,0,0,0,0,0,845,0,No
3,1,4,0,0,3,0,0,0,0,0,0,0,406,0,No
13,2,13,0,0,3,0,0,0,0,0,0,0,697,0,No
6,0,6,0,0,3,0,0,0,0,0,0,0,845,0,No
6,8,35,0,0,2,0,0,0,0,0,0,0,188,0,No
5,10,24,0,0,3,0,0,0,0,0,0,0,305,0,No
11,6,17,0,0,4,0,0,0,0,0,0,0,806,0,No
3,7,9,0,0,4,0,0,0,0,0,0,0,775,0,No
4,4,7,0,0,3,0,0,0,0,0,0,0,214,0,No
9,13,11,0,0,4,0,0,0,0,0,0,0,670,0,Yes
0,2,0,0,0,4,0,0,0,0,0,0,0,806,0,No
6,13,27,0,0,4,0,0,0,0,0,0,0,200,0,No
1,4,2,0,0,4,0,0,0,0,0,0,0,390,0,No
25,18,46,3,1,5,2,2,1,1,1,2,2,298,0,No
2,5,2,0,0,3,0,0,0,0,0,0,0,291,0,No
9,7,13,0,0,3,0,0,0,0,0,0,0,390,0,No
3,1,3,0,0,3,0,0,0,0,0,0,0,806,0,No
2,3,7,0,0,1,0,0,0,0,0,0,0,167,0,No
3,0,3,0,0,3,0,0,0,0,0,0,0,461,0,No
2,2,8,0,0,3,0,0,0,0,0,0,0,641,0,No
2,2,5,0,0,3,0,0,0,0,0,0,0,641,0,No
2,3,6,0,0,3,0,0,0,0,0,0,0,641,0,No
2,4,10,0,0,3,0,0,0,0,0,0,0,641,0,Yes
2,3,6,0,0,3,0,0,0,0,0,0,0,406,0,No
2,3,8,0,0,6,0,0,0,0,0,0,0,406,0,No
2,3,9,0,0,3,0,0,0,0,0,0,0,641,0,No
1,7,22,0,0,4,0,0,0,0,0,0,0,375,0,No
8,12,15,0,0,5,0,0,0,0,0,0,0,770,0,No
2,11,31,0,0,4,0,0,0,0,0,0,0,361,0,No
11,16,46,0,0,4,0,0,0,0,0,0,0,783,0,No
7,24,45,0,0,5,0,0,0,0,0,0,0,683,0,Yes
4,4,4,0,0,4,0,0,0,0,0,0,0,480,0,No
2,2,5,0,0,3,0,0,0,0,0,0,0,406,0,No
8,7,14,0,0,4,0,0,0,0,0,0,0,621,0,No
2,0,6,0,0,3,0,0,0,0,0,0,0,292,0,No
2,0,9,0,0,3,0,0,0,0,0,0,0,292,0,No
11,0,12,4,0,4,2,2,0,0,3,14,30,877,0,No
2,1,2,0,0,3,0,0,0,0,0,0,0,877,0,No
8,1,13,0,0,4,0,0,0,0,0,0,0,877,0,No
1,1,10,0,0,3,0,0,0,0,0,0,0,822,0,No
0,1,0,0,0,3,0,0,0,0,0,0,0,838,0,No
2,0,2,0,0,3,0,0,0,0,0,0,0,877,0,No
3,1,4,0,0,3,0,0,0,0,0,0,0,438,0,No
13,2,13,0,0,3,0,0,0,0,0,0,0,729,0,No
6,0,6,0,0,3,0,0,0,0,0,0,0,877,0,No
6,8,35,0,0,2,0,0,0,0,0,0,0,220,0,No
5,10,24,0,0,3,0,0,0,0,0,0,0,337,0,No
11,6,17,0,0,4,0,0,0,0,0,0,0,838,0,No
3,7,9,4,0,5,2,2,0,0,1,2,25,807,0,No
4,4,7,6,0,4,3,3,0,0,1,2,25,246,0,No
9,13,11,0,0,4,0,0,0,0,0,0,0,702,0,No
0,2,0,0,0,4,0,0,0,0,0,0,0,838,0,No
6,13,27,2,0,5,1,1,0,0,1,2,25,232,0,No
1,4,2,0,0,4,0,0,0,0,0,0,0,422,0,No
25,18,46,0,1,5,0,0,0,0,0,0,0,330,0,No
9,7,13,0,0,3,0,0,0,0,0,0,0,422,0,No
3,1,3,0,0,3,0,0,0,0,0,0,0,838,0,No
2,3,7,0,0,1,0,0,0,0,0,0,0,199,0,No
5,2,9,0,0,3,0,0,0,0,0,0,0,493,0,No
53,9,97,0,0,5,0,0,0,0,0,0,0,831,0,No
2,2,8,0,0,3,0,0,0,0,0,0,0,673,0,No
2,2,5,0,0,3,0,0,0,0,0,0,0,673,0,No
2,3,6,0,0,3,0,0,0,0,0,0,0,673,0,No
2,4,10,4,1,3,1,1,-2,0,1,3,4,673,0,No
2,3,6,0,0,3,0,0,0,0,0,0,0,438,0,No
2,3,8,0,0,6,0,0,0,0,0,0,0,438,0,No
2,3,9,0,0,3,0,0,0,0,0,0,0,673,0,No
8,12,15,0,0,5,0,0,0,0,0,0,0,802,0,No
2,11,31,0,0,4,0,0,0,0,0,0,0,393,0,Yes
11,16,46,0,0,4,0,0,0,0,0,0,0,815,0,No
7,24,45,12,1,5,9,9,6,6,2,5,5,715,0,Yes
4,4,4,0,0,4,0,0,0,0,0,0,0,512,0,No
2,2,5,0,0,3,0,0,0,0,0,0,0,438,0,No
8,7,14,0,0,4,0,0,0,0,0,0,0,653,0,Yes
2,0,6,0,0,3,0,0,0,0,0,0,0,294,0,No
2,0,9,0,0,3,0,0,0,0,0,0,0,294,0,No
11,0,12,0,0,4,0,0,0,0,0,0,0,879,0,No
2,1,2,0,0,3,0,0,0,0,0,0,0,879,0,No
8,1,13,0,0,4,0,0,0,0,0,0,0,879,0,No
1,1,10,0,0,3,0,0,0,0,0,0,0,824,0,No
0,1,0,0,0,3,0,0,0,0,0,0,0,840,0,No
2,0,2,0,0,3,0,0,0,0,0,0,0,879,0,No
3,1,4,0,0,3,0,0,0,0,0,0,0,440,0,No
13,2,13,0,0,3,0,0,0,0,0,0,0,731,0,No
6,0,6,0,0,3,0,0,0,0,0,0,0,879,0,No
6,8,35,0,0,2,0,0,0,0,0,0,0,222,0,No
5,10,24,0,0,3,0,0,0,0,0,0,0,339,0,No
11,6,17,0,0,4,0,0,0,0,0,0,0,840,0,No
3,7,9,0,0,5,0,0,0,0,0,0,0,809,0,No
4,4,7,0,0,4,0,0,0,0,0,0,0,248,0,No
9,13,11,0,0,4,0,0,0,0,0,0,0,704,0,No
0,2,0,0,0,4,0,0,0,0,0,0,0,840,0,No
6,13,27,0,0,5,0,0,0,0,0,0,0,234,0,No
1,4,2,0,0,4,0,0,0,0,0,0,0,424,0,No
25,18,46,0,1,5,0,0,0,0,0,0,0,332,0,No
9,7,13,0,0,3,0,0,0,0,0,0,0,424,0,No
3,1,3,0,0,3,0,0,0,0,0,0,0,840,0,No
2,3,7,0,0,1,0,0,0,0,0,0,0,201,0,No
3,0,3,0,0,3,0,0,0,0,0,0,0,495,0,Yes
2,2,8,0,0,3,0,0,0,0,0,0,0,675,0,No
2,2,5,0,0,3,0,0,0,0,0,0,0,675,0,No
2,3,6,0,0,3,0,0,0,0,0,0,0,675,0,No
2,4,10,0,1,3,0,0,0,0,0,0,0,675,0,No
2,3,6,0,0,3,0,0,0,0,0,0,0,440,0,No
2,3,8,0,0,6,0,0,0,0,0,0,0,440,0,No
2,3,9,0,0,3,0,0,0,0,0,0,0,675,0,No
1,7,22,0,0,4,0,0,0,0,0,0,0,409,0,No
8,12,15,0,0,5,0,0,0,0,0,0,0,804,0,No
2,11,31,0,0,4,0,0,0,0,0,0,0,395,0,Yes
11,16,46,0,0,4,0,0,0,0,0,0,0,817,0,No
7,24,45,0,1,5,0,0,0,0,0,0,0,717,0,Yes
4,4,4,0,0,4,0,0,0,0,0,0,0,514,0,No
2,2,5,0,0,3,0,0,0,0,0,0,0,440,0,No
8,7,14,0,0,4,0,0,0,0,0,0,0,655,0,Yes
2,0,6,0,0,3,0,0,0,0,0,0,0,363,0,No
2,0,9,0,0,3,0,0,0,0,0,0,0,363,0,No
11,0,12,0,0,4,0,0,0,0,0,0,0,948,0,No
2,1,2,0,0,3,0,0,0,0,0,0,0,948,0,No
8,1,13,0,0,4,0,0,0,0,0,0,0,948,0,No
1,1,10,0,0,3,0,0,0,0,0,0,0,893,0,No
0,1,0,0,0,3,0,0,0,0,0,0,0,909,0,No
2,0,2,0,0,3,0,0,0,0,0,0,0,948,0,No
3,1,4,0,0,3,0,0,0,0,0,0,0,509,0,No
13,2,13,0,0,3,0,0,0,0,0,0,0,800,0,No
6,0,6,0,0,3,0,0,0,0,0,0,0,948,0,No
6,8,35,2,0,2,1,1,0,0,1,1,1,291,0,No
5,10,24,0,0,3,0,0,0,0,0,0,0,408,0,No
11,6,17,6,0,4,3,3,0,0,2,5,9,909,0,No
3,7,9,0,0,5,0,0,0,0,0,0,0,878,0,Yes
4,4,7,0,0,4,0,0,0,0,0,0,0,317,0,No
9,13,11,0,0,4,0,0,0,0,0,0,0,773,0,No
0,2,0,0,0,4,0,0,0,0,0,0,0,909,0,No
6,13,27,0,0,5,0,0,0,0,0,0,0,303,0,No
1,4,2,0,0,4,0,0,0,0,0,0,0,493,0,No
25,18,46,0,1,5,0,0,0,0,0,0,0,401,0,No
9,7,13,0,0,3,0,0,0,0,0,0,0,493,0,No
3,1,3,0,0,3,0,0,0,0,0,0,0,909,0,No
2,3,7,0,0,1,0,0,0,0,0,0,0,270,0,No
5,2,9,67,1,3,64,64,61,61,1,6,17,564,0,No
53,9,97,6,2,5,4,3,2,2,2,2,2,902,0,Yes
2,2,8,0,0,3,0,0,0,0,0,0,0,744,0,No
2,2,5,0,0,3,0,0,0,0,0,0,0,744,0,No
2,3,6,0,0,3,0,0,0,0,0,0,0,744,0,No
2,4,10,0,1,3,0,0,0,0,0,0,0,744,0,No
2,3,6,0,0,3,0,0,0,0,0,0,0,509,0,No
2,3,8,0,0,6,0,0,0,0,0,0,0,509,0,No
2,3,9,0,0,3,0,0,0,0,0,0,0,744,0,No
8,12,15,0,0,5,0,0,0,0,0,0,0,873,0,No
2,11,31,0,0,4,0,0,0,0,0,0,0,464,0,Yes
11,16,46,0,0,4,0,0,0,0,0,0,0,886,0,No
7,24,45,0,1,5,0,0,0,0,0,0,0,786,0,Yes
4,4,4,0,0,4,0,0,0,0,0,0,0,583,0,No
2,2,5,0,0,3,0,0,0,0,0,0,0,509,0,No
8,7,14,2,1,4,1,1,0,0,3,8,8,724,0,No
2,0,6,0,0,3,0,0,0,0,0,0,0,407,0,No
2,0,9,0,0,3,0,0,0,0,0,0,0,407,0,No
11,0,12,0,0,4,0,0,0,0,0,0,0,992,0,No
2,1,2,0,0,3,0,0,0,0,0,0,0,992,0,No
8,1,13,0,0,4,0,0,0,0,0,0,0,992,0,No
1,1,10,0,0,3,0,0,0,0,0,0,0,937,0,No
0,1,0,0,0,3,0,0,0,0,0,0,0,953,0,No
2,0,2,0,0,3,0,0,0,0,0,0,0,992,0,No
3,1,4,0,0,3,0,0,0,0,0,0,0,553,0,No
13,2,13,0,0,3,0,0,0,0,0,0,0,844,0,No
6,0,6,0,0,3,0,0,0,0,0,0,0,992,0,No
6,8,35,0,0,2,0,0,0,0,0,0,0,335,0,No
5,10,24,0,0,3,0,0,0,0,0,0,0,452,0,Yes
11,6,17,0,0,4,0,0,0,0,0,0,0,953,0,No
3,7,9,0,0,5,0,0,0,0,0,0,0,922,0,Yes
4,4,7,0,0,4,0,0,0,0,0,0,0,361,0,Yes
9,13,11,0,0,4,0,0,0,0,0,0,0,817,0,Yes
0,2,0,0,0,4,0,0,0,0,0,0,0,953,0,No
6,13,27,0,0,5,0,0,0,0,0,0,0,347,0,Yes
1,4,2,0,0,4,0,0,0,0,0,0,0,537,0,Yes
9,7,13,0,0,3,0,0,0,0,0,0,0,537,0,No
3,1,3,0,0,3,0,0,0,0,0,0,0,953,0,No
2,3,7,0,0,1,0,0,0,0,0,0,0,314,0,No
5,2,9,0,1,3,0,0,0,0,0,0,0,608,0,Yes
53,9,97,49,3,5,41,41,33,33,4,12,12,946,0,Yes
2,2,8,0,0,3,0,0,0,0,0,0,0,788,0,No
2,2,5,0,0,3,0,0,0,0,0,0,0,788,0,No
2,3,6,0,0,3,0,0,0,0,0,0,0,788,0,No
2,4,10,0,1,3,0,0,0,0,0,0,0,788,0,No
2,3,6,0,0,3,0,0,0,0,0,0,0,553,0,No
2,3,8,0,0,6,0,0,0,0,0,0,0,553,0,No
2,3,9,0,0,3,0,0,0,0,0,0,0,788,0,No
10,0,20,241,0,1,231,223,221,223,3,11,18,0,0,No
8,12,15,0,0,5,0,0,0,0,0,0,0,917,0,Yes
2,11,31,0,0,4,0,0,0,0,0,0,0,508,0,Yes
11,16,46,0,0,4,0,0,0,0,0,0,0,930,0,No
7,24,45,0,1,5,0,0,0,0,0,0,0,830,0,Yes
4,4,4,0,0,4,0,0,0,0,0,0,0,627,0,No
2,2,5,0,0,3,0,0,0,0,0,0,0,553,0,No
8,7,14,0,1,4,0,0,0,0,0,0,0,768,0,Yes
2,0,6,0,0,3,0,0,0,0,0,0,0,442,0,No
2,0,9,0,0,3,0,0,0,0,0,0,0,442,0,Yes
11,0,12,0,0,4,0,0,0,0,0,0,0,1027,0,No
2,1,2,0,0,3,0,0,0,0,0,0,0,1027,0,No
8,1,13,0,0,4,0,0,0,0,0,0,0,1027,0,No
1,1,10,0,0,3,0,0,0,0,0,0,0,972,0,No
0,1,0,0,0,3,0,0,0,0,0,0,0,988,0,No
2,0,2,0,0,3,0,0,0,0,0,0,0,1027,0,No
3,1,4,0,0,3,0,0,0,0,0,0,0,588,0,No
13,2,13,0,0,3,0,0,0,0,0,0,0,879,0,No
6,0,6,0,0,3,0,0,0,0,0,0,0,1027,0,No
6,8,35,0,0,2,0,0,0,0,0,0,0,370,0,No
8,11,27,72,0,3,60,58,48,48,4,16,107,487,0,No
11,7,17,8,0,4,5,5,2,2,1,9,92,988,0,No
3,8,9,56,4,5,34,20,12,11,7,19,111,957,0,No
4,5,7,32,0,4,15,15,-2,0,1,9,92,396,0,No
9,13,11,28,0,4,14,14,0,0,1,9,92,852,0,Yes
0,2,0,0,0,4,0,0,0,0,0,0,0,988,0,No
6,13,27,49,1,5,24,14,-1,1,3,14,100,382,0,No
1,4,2,0,0,4,0,0,0,0,0,0,0,572,0,No
9,8,13,27,0,3,13,13,-1,0,1,9,92,572,0,No
3,1,3,0,0,3,0,0,0,0,0,0,0,988,0,No
2,3,7,0,0,1,0,0,0,0,0,0,0,349,0,No
5,2,9,0,1,3,0,0,0,0,0,0,0,643,0,No
53,9,98,4,4,5,2,2,0,0,1,8,10,981,0,No
2,2,8,0,0,3,0,0,0,0,0,0,0,823,0,Yes
2,2,5,0,0,3,0,0,0,0,0,0,0,823,0,Yes
2,3,6,0,0,3,0,0,0,0,0,0,0,823,0,Yes
2,4,10,0,1,3,0,0,0,0,0,0,0,823,0,Yes
2,3,6,0,0,3,0,0,0,0,0,0,0,588,0,Yes
2,3,8,0,0,6,0,0,0,0,0,0,0,588,0,Yes
2,3,9,0,0,3,0,0,0,0,0,0,0,823,0,Yes
10,0,20,39,0,1,0,0,-39,0,1,1,2,35,0,No
8,12,15,0,0,5,0,0,0,0,0,0,0,952,0,Yes
2,11,31,0,0,4,0,0,0,0,0,0,0,543,0,Yes
11,16,46,0,0,4,0,0,0,0,0,0,0,965,0,No
7,24,45,0,1,5,0,0,0,0,0,0,0,865,0,Yes
4,4,4,0,0,4,0,0,0,0,0,0,0,662,0,No
2,2,5,0,0,3,0,0,0,0,0,0,0,588,0,No
8,7,15,5,2,4,2,2,-1,0,1,8,10,803,0,No
2,0,6,0,0,3,0,0,0,0,0,0,0,469,0,No
2,0,9,0,0,3,0,0,0,0,0,0,0,469,0,No
11,0,12,0,0,4,0,0,0,0,0,0,0,1054,0,No
2,1,2,0,0,3,0,0,0,0,0,0,0,1054,0,No
8,1,13,0,0,4,0,0,0,0,0,0,0,1054,0,No
1,1,10,0,0,3,0,0,0,0,0,0,0,999,0,No
0,1,0,0,0,3,0,0,0,0,0,0,0,1015,0,No
2,0,2,0,0,3,0,0,0,0,0,0,0,1054,0,No
3,1,4,0,0,3,0,0,0,0,0,0,0,615,0,No
13,2,13,0,0,3,0,0,0,0,0,0,0,906,0,No
2,3,12,81,2,4,62,62,43,43,1,3,5,732,0,No
6,0,6,0,0,3,0,0,0,0,0,0,0,1054,0,No
6,8,35,0,0,2,0,0,0,0,0,0,0,397,0,No
8,11,27,0,0,3,0,0,0,0,0,0,0,514,0,No
11,7,17,0,0,4,0,0,0,0,0,0,0,1015,0,No
3,8,9,0,4,5,0,0,0,0,0,0,0,984,0,No
4,5,7,0,0,4,0,0,0,0,0,0,0,423,0,No
9,13,11,0,0,4,0,0,0,0,0,0,0,879,0,No
0,2,0,0,0,4,0,0,0,0,0,0,0,1015,0,No
6,13,27,0,1,5,0,0,0,0,0,0,0,409,0,No
1,4,2,8,0,5,4,4,0,0,1,5,6,599,0,No
9,8,13,0,0,3,0,0,0,0,0,0,0,599,0,No
3,1,3,0,0,3,0,0,0,0,0,0,0,1015,0,No
5,0,9,21,2,5,18,10,15,8,2,3,4,963,0,No
2,3,7,0,0,1,0,0,0,0,0,0,0,376,0,No
5,2,9,0,1,3,0,0,0,0,0,0,0,670,0,No
53,9,98,0,4,5,0,0,0,0,0,0,0,1008,0,No
2,2,8,0,0,3,0,0,0,0,0,0,0,850,0,No
2,2,5,0,0,3,0,0,0,0,0,0,0,850,0,No
2,3,6,0,0,3,0,0,0,0,0,0,0,850,0,No
2,4,10,0,1,3,0,0,0,0,0,0,0,850,0,No
2,3,6,0,0,3,0,0,0,0,0,0,0,615,0,No
2,3,8,0,0,6,0,0,0,0,0,0,0,615,0,No
2,3,9,0,0,3,0,0,0,0,0,0,0,850,0,No
10,0,20,0,0,1,0,0,0,0,0,0,0,62,0,No
8,12,15,0,0,5,0,0,0,0,0,0,0,979,0,No
2,11,31,0,0,4,0,0,0,0,0,0,0,570,0,Yes
11,16,46,0,0,4,0,0,0,0,0,0,0,992,0,No
7,24,45,0,1,5,0,0,0,0,0,0,0,892,0,Yes
4,4,4,0,0,4,0,0,0,0,0,0,0,689,0,No
2,2,5,0,0,3,0,0,0,0,0,0,0,615,0,No
8,7,15,0,2,4,0,0,0,0,0,0,0,830,0,No
2,0,6,0,0,3,0,0,0,0,0,0,0,479,0,No
2,0,9,2,1,3,1,1,0,0,7,26,39,479,0,No
11,0,12,0,0,5,0,0,0,0,0,0,0,1064,0,No
15,1,26,0,0,5,0,0,0,0,0,0,0,980,0,No
8,1,13,0,0,5,0,0,0,0,0,0,0,1064,0,No
23,3,31,52,0,7,31,31,10,10,7,26,39,1004,0,No
11,2,27,0,1,4,0,0,0,0,0,0,0,144,0,No
12,0,12,0,0,5,0,0,0,0,0,0,0,1064,0,No
20,1,27,0,0,6,0,0,0,0,0,0,0,527,0,No
2,0,2,0,0,5,0,0,0,0,0,0,0,1064,0,No
2,0,2,0,0,5,0,0,0,0,0,0,0,1025,0,No
1,1,11,0,2,4,0,0,0,0,0,0,0,1009,0,No
4,4,10,0,1,6,0,0,0,0,0,0,0,517,0,Yes
3,1,4,0,0,5,0,0,0,0,0,0,0,625,0,No
13,2,13,0,0,5,0,0,0,0,0,0,0,916,0,No
2,3,12,0,2,6,0,0,0,0,0,0,0,742,0,No
10,12,29,0,1,5,0,0,0,0,0,0,0,524,0,No
9,5,16,0,0,7,0,0,0,0,0,0,0,1025,0,No
0,1,0,0,0,2,0,0,0,0,0,0,0,66,0,No
4,5,4,0,1,5,0,0,0,0,0,0,0,973,0,No
19,14,35,0,2,7,0,0,0,0,0,0,0,1018,0,No
5,5,8,0,1,6,0,0,0,0,0,0,0,433,0,No
11,14,19,0,3,7,0,0,0,0,0,0,0,889,0,No
3,5,5,0,0,3,0,0,0,0,0,0,0,157,0,No
8,19,38,0,1,7,0,0,0,0,0,0,0,609,0,No
6,14,27,0,2,7,0,0,0,0,0,0,0,419,0,No
1,7,1,0,1,6,0,0,0,0,0,0,0,510,0,Yes
14,21,32,0,5,3,0,0,0,0,0,0,0,105,0,No
5,0,8,0,2,6,0,0,0,0,0,0,0,973,0,No
2,3,7,0,0,2,0,0,0,0,0,0,0,386,0,No
12,1,19,0,0,2,0,0,0,0,0,0,0,144,0,No
23,4,30,68,0,5,46,46,24,24,7,26,39,1029,0,No
8,10,53,0,0,9,0,0,0,0,0,0,0,808,0,Yes
2,0,6,252,1,7,77,52,-98,0,2,15,28,1021,0,No
2,3,5,166,1,7,23,22,-120,0,2,15,28,1021,0,No
2,2,8,0,0,4,0,0,0,0,0,0,0,860,0,No
2,2,5,0,0,4,0,0,0,0,0,0,0,860,0,No
2,4,10,0,0,4,0,0,0,0,0,0,0,860,0,No
2,3,6,0,0,4,0,0,0,0,0,0,0,625,0,No
2,2,8,0,0,8,0,0,0,0,0,0,0,625,0,No
2,3,9,0,0,4,0,0,0,0,0,0,0,860,0,No
2,2,2,0,0,5,0,0,0,0,0,0,0,625,0,No
10,0,18,0,0,2,0,0,0,0,0,0,0,71,0,No
2,2,5,0,0,3,0,0,0,0,0,0,0,625,0,No
9,15,17,9,2,7,5,5,1,1,1,7,13,989,0,No
15,18,24,0,3,7,0,0,0,0,0,0,0,581,0,Yes
11,8,18,12,1,7,9,9,6,6,1,8,15,840,0,No
4,6,16,0,0,3,0,0,0,0,0,0,0,91,0,No
1,8,3,0,1,4,0,0,0,0,0,0,0,80,0,No
2,0,6,0,0,3,0,0,0,0,0,0,0,492,0,No
2,0,9,0,0,3,0,0,0,0,0,0,0,492,0,No
11,0,12,0,0,4,0,0,0,0,0,0,0,1077,0,No
2,1,2,0,0,3,0,0,0,0,0,0,0,1077,0,No
8,1,13,0,0,4,0,0,0,0,0,0,0,1077,0,No
1,1,10,0,0,3,0,0,0,0,0,0,0,1022,0,No
0,1,0,0,0,3,0,0,0,0,0,0,0,1038,0,No
2,0,2,0,0,3,0,0,0,0,0,0,0,1077,0,No
3,1,4,0,0,3,0,0,0,0,0,0,0,638,0,No
13,2,13,0,0,3,0,0,0,0,0,0,0,929,0,No
2,3,12,0,2,4,0,0,0,0,0,0,0,755,0,No
6,0,6,0,0,3,0,0,0,0,0,0,0,1077,0,No
6,8,35,0,0,2,0,0,0,0,0,0,0,420,0,No
8,11,27,0,0,3,0,0,0,0,0,0,0,537,0,No
11,7,17,0,0,4,0,0,0,0,0,0,0,1038,0,No
3,8,9,0,4,5,0,0,0,0,0,0,0,1007,0,Yes
4,5,7,0,0,4,0,0,0,0,0,0,0,446,0,No
9,13,11,0,0,4,0,0,0,0,0,0,0,902,0,No
0,2,0,0,0,4,0,0,0,0,0,0,0,1038,0,No
6,13,27,0,1,5,0,0,0,0,0,0,0,432,0,No
1,4,2,0,0,5,0,0,0,0,0,0,0,622,0,No
9,8,13,0,0,3,0,0,0,0,0,0,0,622,0,No
3,1,3,0,0,3,0,0,0,0,0,0,0,1038,0,No
5,0,9,0,2,5,0,0,0,0,0,0,0,986,0,No
2,3,7,0,0,1,0,0,0,0,0,0,0,399,0,No
5,2,9,0,1,3,0,0,0,0,0,0,0,693,0,No
53,9,98,0,4,5,0,0,0,0,0,0,0,1031,0,Yes
2,2,8,0,0,3,0,0,0,0,0,0,0,873,0,No
2,2,5,0,0,3,0,0,0,0,0,0,0,873,0,No
2,3,6,0,0,3,0,0,0,0,0,0,0,873,0,No
2,4,10,0,1,3,0,0,0,0,0,0,0,873,0,No
2,3,6,0,0,3,0,0,0,0,0,0,0,638,0,No
2,3,8,0,0,6,0,0,0,0,0,0,0,638,0,No
2,3,9,0,0,3,0,0,0,0,0,0,0,873,0,No
10,0,20,0,0,1,0,0,0,0,0,0,0,85,0,No
8,12,15,0,0,5,0,0,0,0,0,0,0,1002,0,No
2,11,31,0,0,4,0,0,0,0,0,0,0,593,0,Yes
11,16,46,0,0,4,0,0,0,0,0,0,0,1015,0,Yes
7,24,45,0,1,5,0,0,0,0,0,0,0,915,0,Yes
4,4,4,0,0,4,0,0,0,0,0,0,0,712,0,No
2,2,5,0,0,3,0,0,0,0,0,0,0,638,0,No
8,7,15,0,2,4,0,0,0,0,0,0,0,853,0,No
2,0,6,0,0,3,0,0,0,0,0,0,0,503,0,No
2,0,9,0,1,3,0,0,0,0,0,0,0,503,0,No
11,0,12,0,0,5,0,0,0,0,0,0,0,1088,0,No
15,1,26,0,0,5,0,0,0,0,0,0,0,1004,0,No
8,1,13,0,0,5,0,0,0,0,0,0,0,1088,0,No
3,1,3,137,0,4,72,72,7,7,4,13,15,1088,0,No
23,3,31,0,0,7,0,0,0,0,0,0,0,1028,0,No
11,2,27,0,1,4,0,0,0,0,0,0,0,168,0,No
12,0,12,0,0,5,0,0,0,0,0,0,0,1088,0,No
20,1,27,0,0,6,0,0,0,0,0,0,0,551,0,No
2,0,2,1,0,5,1,1,1,1,4,13,15,1088,0,No
2,0,2,0,0,5,0,0,0,0,0,0,0,1049,0,No
1,1,11,0,2,4,0,0,0,0,0,0,0,1033,0,No
4,4,10,0,1,6,0,0,0,0,0,0,0,541,0,Yes
3,1,4,0,0,5,0,0,0,0,0,0,0,649,0,No
13,2,13,0,0,5,0,0,0,0,0,0,0,940,0,No
2,3,12,0,2,6,0,0,0,0,0,0,0,766,0,No
10,12,29,0,1,5,0,0,0,0,0,0,0,548,0,No
9,5,16,0,0,7,0,0,0,0,0,0,0,1049,0,No
0,1,0,0,0,2,0,0,0,0,0,0,0,90,0,No
4,5,4,0,1,5,0,0,0,0,0,0,0,997,0,No
19,14,35,0,2,7,0,0,0,0,0,0,0,1042,0,No
5,5,8,0,1,6,0,0,0,0,0,0,0,457,0,No
11,14,19,0,3,7,0,0,0,0,0,0,0,913,0,No
3,5,5,0,0,3,0,0,0,0,0,0,0,181,0,No
8,19,38,12,1,7,4,2,-4,0,2,2,2,633,0,No
6,14,27,0,2,7,0,0,0,0,0,0,0,443,0,No
6,12,18,62,2,7,42,42,22,22,1,2,4,633,0,No
1,7,1,3,2,7,2,2,1,1,1,2,4,534,0,No
14,21,32,0,5,3,0,0,0,0,0,0,0,129,0,No
5,0,8,0,2,6,0,0,0,0,0,0,0,997,0,No
2,3,7,0,0,2,0,0,0,0,0,0,0,410,0,No
12,1,19,0,0,2,0,0,0,0,0,0,0,168,0,No
23,4,30,0,0,5,0,0,0,0,0,0,0,1053,0,No
8,10,53,0,0,9,0,0,0,0,0,0,0,832,0,Yes
2,0,6,0,1,7,0,0,0,0,0,0,0,1045,0,No
2,3,5,0,1,7,0,0,0,0,0,0,0,1045,0,No
2,2,8,9,1,5,5,5,1,1,2,3,19,884,0,No
2,2,5,9,1,5,4,4,-1,0,2,3,19,884,0,No
2,4,10,5,1,5,3,3,1,1,2,3,19,884,0,No
2,3,6,10,1,5,6,6,2,2,2,3,19,649,0,No
2,2,8,10,1,8,6,6,2,2,2,3,19,649,0,No
2,3,9,7,1,5,3,3,-1,0,2,3,19,884,0,No
2,2,2,0,0,5,0,0,0,0,0,0,0,649,0,No
11,0,21,27,0,2,22,22,17,17,4,13,15,95,0,No
2,2,5,0,0,3,0,0,0,0,0,0,0,649,0,No
9,15,17,0,2,7,0,0,0,0,0,0,0,1013,0,No
15,18,24,0,3,7,0,0,0,0,0,0,0,605,0,Yes
11,8,18,0,1,7,0,0,0,0,0,0,0,864,0,Yes
4,6,16,0,0,3,0,0,0,0,0,0,0,115,0,No
1,8,3,0,1,4,0,0,0,0,0,0,0,104,0,No
2,0,6,0,0,3,0,0,0,0,0,0,0,546,0,No
2,0,9,0,1,3,0,0,0,0,0,0,0,546,0,No
11,0,12,0,0,5,0,0,0,0,0,0,0,1131,0,No
15,1,26,0,0,5,0,0,0,0,0,0,0,1047,0,No
8,1,13,0,0,5,0,0,0,0,0,0,0,1131,0,No
3,1,3,0,0,4,0,0,0,0,0,0,0,1131,0,No
23,3,31,0,0,7,0,0,0,0,0,0,0,1071,0,No
11,2,27,0,1,4,0,0,0,0,0,0,0,211,0,No
12,0,12,0,0,5,0,0,0,0,0,0,0,1131,0,No
20,1,27,0,0,6,0,0,0,0,0,0,0,594,0,No
2,0,2,0,0,5,0,0,0,0,0,0,0,1131,0,No
2,0,2,0,0,5,0,0,0,0,0,0,0,1092,0,No
1,1,11,0,2,4,0,0,0,0,0,0,0,1076,0,No
4,4,10,0,1,6,0,0,0,0,0,0,0,584,0,Yes
3,1,4,0,0,5,0,0,0,0,0,0,0,692,0,No
13,2,13,0,0,5,0,0,0,0,0,0,0,983,0,No
2,3,12,0,2,6,0,0,0,0,0,0,0,809,0,No
9,6,34,35,0,4,21,19,7,11,5,11,58,474,0,No
8,3,28,47,0,4,22,20,-3,0,4,13,77,473,0,No
10,12,29,15,1,5,6,4,-3,1,3,9,84,591,0,No
9,4,16,22,0,7,7,4,-8,0,6,15,102,1092,0,No
0,1,0,0,0,2,0,0,0,0,0,0,0,133,0,No
4,5,4,4,1,6,2,2,0,0,1,4,44,1040,0,No
19,14,35,8,2,7,4,2,0,1,6,18,117,1085,0,No
5,5,8,14,1,6,5,3,-4,1,3,9,84,500,0,No
11,14,19,16,3,7,6,4,-4,1,3,9,84,956,0,No
8,19,38,0,1,7,0,0,0,0,0,0,0,676,0,No
6,15,27,7,2,7,4,2,1,1,4,13,77,486,0,No
6,13,18,18,2,7,11,5,4,3,4,10,49,676,0,No
14,21,32,4,5,4,2,2,0,0,1,4,44,172,0,No
5,1,8,7,2,7,4,2,1,1,4,13,77,1040,0,No
2,3,7,0,0,2,0,0,0,0,0,0,0,453,0,No
12,1,19,0,0,2,0,0,0,0,0,0,0,211,0,No
23,4,30,0,0,5,0,0,0,0,0,0,0,1096,0,No
8,10,53,0,0,9,0,0,0,0,0,0,0,875,0,Yes
2,0,6,0,1,7,0,0,0,0,0,0,0,1088,0,No
2,3,5,0,1,7,0,0,0,0,0,0,0,1088,0,No
2,2,8,0,1,5,0,0,0,0,0,0,0,927,0,No
2,2,5,0,1,5,0,0,0,0,0,0,0,927,0,No
2,4,10,0,1,5,0,0,0,0,0,0,0,927,0,No
2,3,6,0,1,5,0,0,0,0,0,0,0,692,0,No
2,2,8,0,1,8,0,0,0,0,0,0,0,692,0,No
2,3,9,0,1,5,0,0,0,0,0,0,0,927,0,No
2,2,2,0,0,5,0,0,0,0,0,0,0,692,0,No
11,0,21,0,0,2,0,0,0,0,0,0,0,138,0,No
2,2,5,0,0,3,0,0,0,0,0,0,0,692,0,Yes
9,15,17,0,2,7,0,0,0,0,0,0,0,1056,0,No
15,18,24,0,3,7,0,0,0,0,0,0,0,648,0,Yes
6,8,13,38,2,7,7,7,-24,0,1,4,9,907,0,No
4,6,16,0,0,3,0,0,0,0,0,0,0,158,0,No
1,8,3,0,1,4,0,0,0,0,0,0,0,147,0,No
2,0,6,0,0,3,0,0,0,0,0,0,0,577,0,No
2,0,9,0,1,3,0,0,0,0,0,0,0,577,0,No
11,0,12,0,0,5,0,0,0,0,0,0,0,1162,0,No
15,1,26,0,0,5,0,0,0,0,0,0,0,1078,0,No
8,1,13,0,0,5,0,0,0,0,0,0,0,1162,0,No
3,1,3,0,0,4,0,0,0,0,0,0,0,1162,0,No
23,3,31,0,0,7,0,0,0,0,0,0,0,1102,0,No
11,2,27,0,1,4,0,0,0,0,0,0,0,242,0,No
12,0,12,0,0,5,0,0,0,0,0,0,0,1162,0,No
20,1,27,0,0,6,0,0,0,0,0,0,0,625,0,No
2,0,2,0,0,5,0,0,0,0,0,0,0,1162,0,No
2,0,2,0,0,5,0,0,0,0,0,0,0,1123,0,No
1,1,11,0,2,4,0,0,0,0,0,0,0,1107,0,No
4,4,10,0,1,6,0,0,0,0,0,0,0,615,0,Yes
3,1,4,0,0,5,0,0,0,0,0,0,0,723,0,No
13,2,13,0,0,5,0,0,0,0,0,0,0,1014,0,No
2,3,12,0,2,6,0,0,0,0,0,0,0,840,0,No
9,6,34,0,0,4,0,0,0,0,0,0,0,505,0,No
8,3,28,0,0,4,0,0,0,0,0,0,0,504,0,No
10,12,29,0,1,5,0,0,0,0,0,0,0,622,0,No
9,4,16,0,0,7,0,0,0,0,0,0,0,1123,0,No
0,1,0,0,0,2,0,0,0,0,0,0,0,164,0,No
4,5,4,0,1,6,0,0,0,0,0,0,0,1071,0,No
19,14,35,0,2,7,0,0,0,0,0,0,0,1116,0,No
5,5,8,0,1,6,0,0,0,0,0,0,0,531,0,No
11,14,19,0,3,7,0,0,0,0,0,0,0,987,0,No
8,19,38,0,1,7,0,0,0,0,0,0,0,707,0,No
6,15,27,0,2,7,0,0,0,0,0,0,0,517,0,No
6,13,18,0,2,7,0,0,0,0,0,0,0,707,0,No
14,21,32,0,5,4,0,0,0,0,0,0,0,203,0,No
5,1,8,0,2,7,0,0,0,0,0,0,0,1071,0,No
2,3,7,0,0,2,0,0,0,0,0,0,0,484,0,No
12,1,19,0,0,2,0,0,0,0,0,0,0,242,0,No
23,4,30,0,0,5,0,0,0,0,0,0,0,1127,0,No
8,10,53,0,0,9,0,0,0,0,0,0,0,906,0,Yes
2,0,6,0,1,7,0,0,0,0,0,0,0,1119,0,Yes
2,3,5,0,1,7,0,0,0,0,0,0,0,1119,0,No
2,2,8,0,1,5,0,0,0,0,0,0,0,958,0,Yes
2,2,5,0,1,5,0,0,0,0,0,0,0,958,0,Yes
2,4,10,0,1,5,0,0,0,0,0,0,0,958,0,Yes
2,3,6,0,1,5,0,0,0,0,0,0,0,723,0,Yes
2,2,8,0,1,8,0,0,0,0,0,0,0,723,0,Yes
2,3,9,0,1,5,0,0,0,0,0,0,0,958,0,Yes
2,2,2,0,0,5,0,0,0,0,0,0,0,723,0,No
11,0,21,0,0,2,0,0,0,0,0,0,0,169,0,No
2,2,5,1,1,3,0,0,-1,0,1,3,7,723,0,No
9,15,17,0,2,7,0,0,0,0,0,0,0,1087,0,No
15,18,24,0,3,7,0,0,0,0,0,0,0,679,0,Yes
6,8,13,0,2,7,0,0,0,0,0,0,0,938,0,No
4,6,16,0,0,3,0,0,0,0,0,0,0,189,0,No
1,8,3,0,1,4,0,0,0,0,0,0,0,178,0,No
13,3,15,59,0,5,37,37,15,15,2,4,8,624,0,No
18,4,21,51,0,5,44,44,37,37,2,4,8,624,0,No
2,0,6,0,0,3,0,0,0,0,0,0,0,654,0,No
2,0,9,0,1,3,0,0,0,0,0,0,0,654,0,No
11,0,12,0,0,5,0,0,0,0,0,0,0,1239,0,No
15,1,26,0,0,5,0,0,0,0,0,0,0,1155,0,No
8,1,13,0,0,5,0,0,0,0,0,0,0,1239,0,No
3,1,3,0,0,4,0,0,0,0,0,0,0,1239,0,No
23,3,31,0,0,7,0,0,0,0,0,0,0,1179,0,No
11,2,27,0,1,4,0,0,0,0,0,0,0,319,0,No
12,0,12,0,0,5,0,0,0,0,0,0,0,1239,0,No
20,1,27,0,0,6,0,0,0,0,0,0,0,702,0,No
2,0,2,3,0,5,2,2,1,1,2,5,6,1239,0,Yes
2,0,2,0,0,5,0,0,0,0,0,0,0,1200,0,No
1,1,11,0,2,4,0,0,0,0,0,0,0,1184,0,No
4,4,10,0,1,6,0,0,0,0,0,0,0,692,0,Yes
3,1,4,0,0,5,0,0,0,0,0,0,0,800,0,No
13,2,13,0,0,5,0,0,0,0,0,0,0,1091,0,No
2,3,12,0,2,6,0,0,0,0,0,0,0,917,0,No
9,6,34,0,0,4,0,0,0,0,0,0,0,582,0,No
8,3,28,0,0,4,0,0,0,0,0,0,0,581,0,No
10,12,29,0,1,5,0,0,0,0,0,0,0,699,0,No
9,4,16,0,0,7,0,0,0,0,0,0,0,1200,0,No
0,1,0,0,0,2,0,0,0,0,0,0,0,241,0,No
4,5,4,0,1,6,0,0,0,0,0,0,0,1148,0,No
19,14,35,0,2,7,0,0,0,0,0,0,0,1193,0,No
5,5,8,0,1,6,0,0,0,0,0,0,0,608,0,No
11,14,19,0,3,7,0,0,0,0,0,0,0,1064,0,No
8,19,38,0,1,7,0,0,0,0,0,0,0,784,0,No
6,15,27,0,2,7,0,0,0,0,0,0,0,594,0,No
6,13,18,0,2,7,0,0,0,0,0,0,0,784,0,No
14,21,32,0,5,4,0,0,0,0,0,0,0,280,0,No
5,1,8,0,2,7,0,0,0,0,0,0,0,1148,0,No
2,3,7,0,0,2,0,0,0,0,0,0,0,561,0,Yes
5,10,33,44,1,6,41,41,38,38,2,5,6,689,0,Yes
12,1,19,0,0,2,0,0,0,0,0,0,0,319,0,No
23,4,30,0,0,5,0,0,0,0,0,0,0,1204,0,No
8,10,53,0,0,9,0,0,0,0,0,0,0,983,0,Yes
2,0,6,2,2,7,1,1,0,0,1,5,11,1196,0,No
2,3,5,0,1,7,0,0,0,0,0,0,0,1196,0,No
1,4,10,9,2,5,1,1,-7,0,2,11,47,1035,0,No
3,5,19,15,2,7,8,8,1,1,2,11,47,1035,0,No
1,9,20,7,3,6,1,1,-5,0,2,11,47,769,0,No
2,2,2,0,0,5,0,0,0,0,0,0,0,800,0,No
11,0,21,0,0,2,0,0,0,0,0,0,0,246,0,No
2,2,5,0,1,3,0,0,0,0,0,0,0,800,0,No
9,15,17,0,2,7,0,0,0,0,0,0,0,1164,0,Yes
15,18,24,0,3,7,0,0,0,0,0,0,0,756,0,Yes
6,8,13,0,2,7,0,0,0,0,0,0,0,1015,0,Yes
4,6,16,0,0,3,0,0,0,0,0,0,0,266,0,No
1,8,3,0,1,4,0,0,0,0,0,0,0,255,0,Yes
13,3,15,0,0,5,0,0,0,0,0,0,0,701,0,No
18,4,21,0,0,5,0,0,0,0,0,0,0,701,0,No
2,0,6,0,0,3,0,0,0,0,0,0,0,716,0,No
2,0,9,0,1,3,0,0,0,0,0,0,0,716,0,No
11,0,12,0,0,5,0,0,0,0,0,0,0,1301,0,No
15,1,26,0,0,5,0,0,0,0,0,0,0,1217,0,No
8,1,13,0,0,5,0,0,0,0,0,0,0,1301,0,No
3,1,3,0,0,4,0,0,0,0,0,0,0,1301,0,No
23,3,31,0,0,7,0,0,0,0,0,0,0,1241,0,No
11,2,27,0,1,4,0,0,0,0,0,0,0,381,0,No
12,0,12,0,0,5,0,0,0,0,0,0,0,1301,0,No
20,1,27,0,0,6,0,0,0,0,0,0,0,764,0,No
2,0,2,0,0,5,0,0,0,0,0,0,0,1262,0,No
2,4,18,227,2,2,192,140,157,140,15,80,168,22,0,No
1,1,11,2,2,4,1,1,0,0,4,22,49,1246,0,No
4,4,10,0,1,6,0,0,0,0,0,0,0,754,0,Yes
3,1,4,0,0,5,0,0,0,0,0,0,0,862,0,No
13,2,13,4,0,5,2,2,0,0,4,22,49,1153,0,No
2,3,12,0,2,6,0,0,0,0,0,0,0,979,0,No
9,6,34,0,0,4,0,0,0,0,0,0,0,644,0,No
8,3,28,0,0,4,0,0,0,0,0,0,0,643,0,No
10,12,29,2,1,5,1,1,0,0,4,22,49,761,0,Yes
9,4,16,0,0,7,0,0,0,0,0,0,0,1262,0,Yes
0,1,0,0,0,2,0,0,0,0,0,0,0,303,0,No
4,5,4,0,1,6,0,0,0,0,0,0,0,1210,0,No
19,14,35,2,2,7,1,1,0,0,4,22,49,1255,0,Yes
5,5,8,0,1,6,0,0,0,0,0,0,0,670,0,No
11,14,19,0,3,7,0,0,0,0,0,0,0,1126,0,Yes
8,19,38,2,1,7,1,1,0,0,4,22,49,846,0,No
6,15,27,0,2,7,0,0,0,0,0,0,0,656,0,No
6,13,18,0,2,7,0,0,0,0,0,0,0,846,0,No
14,21,32,0,5,4,0,0,0,0,0,0,0,342,0,Yes
5,1,8,0,2,7,0,0,0,0,0,0,0,1210,0,No
1,3,12,46,1,3,38,38,30,30,4,30,67,623,0,No
5,9,33,43,2,6,37,37,31,31,4,30,67,751,0,Yes
7,28,39,182,2,7,116,79,50,51,9,37,74,751,0,Yes
12,1,19,0,0,2,0,0,0,0,0,0,0,381,0,No
23,4,30,0,0,5,0,0,0,0,0,0,0,1266,0,No
8,10,53,0,0,9,0,0,0,0,0,0,0,1045,0,Yes
2,0,6,0,2,7,0,0,0,0,0,0,0,1258,0,No
2,2,5,1,1,7,0,0,-1,0,4,22,49,1258,0,No
1,4,10,0,2,5,0,0,0,0,0,0,0,1097,0,No
3,5,19,0,2,7,0,0,0,0,0,0,0,1097,0,No
1,9,20,0,3,6,0,0,0,0,0,0,0,831,0,No
2,2,2,0,0,5,0,0,0,0,0,0,0,862,0,No
11,0,21,0,0,2,0,0,0,0,0,0,0,308,0,No
2,2,5,0,1,3,0,0,0,0,0,0,0,862,0,No
10,25,37,88,3,8,39,36,-10,0,7,39,92,1239,0,No
12,23,39,201,2,8,96,49,-9,13,13,74,163,1230,0,Yes
6,9,15,44,4,7,37,19,30,15,5,34,71,1077,0,No
5,7,17,9,1,4,7,7,5,7,8,52,116,328,0,No
13,3,15,0,0,5,0,0,0,0,0,0,0,763,0,No
18,4,21,0,0,5,0,0,0,0,0,0,0,763,0,No
2,0,6,0,0,3,0,0,0,0,0,0,0,802,0,No
2,0,9,0,1,3,0,0,0,0,0,0,0,802,0,No
11,0,12,0,0,5,0,0,0,0,0,0,0,1387,0,No
15,1,26,0,0,5,0,0,0,0,0,0,0,1303,0,No
8,1,13,0,0,5,0,0,0,0,0,0,0,1387,0,No
3,1,3,0,0,4,0,0,0,0,0,0,0,1387,0,No
23,3,31,0,0,7,0,0,0,0,0,0,0,1327,0,No
11,2,27,0,1,4,0,0,0,0,0,0,0,467,0,No
12,0,12,0,0,5,0,0,0,0,0,0,0,1387,0,No
20,1,27,0,0,6,0,0,0,0,0,0,0,850,0,No
2,0,2,0,0,5,0,0,0,0,0,0,0,1348,0,No
2,4,18,0,2,2,0,0,0,0,0,0,0,108,0,No
1,1,11,0,2,4,0,0,0,0,0,0,0,1332,0,No
4,4,10,0,1,6,0,0,0,0,0,0,0,840,0,No
3,1,4,0,0,5,0,0,0,0,0,0,0,948,0,No
13,2,13,0,0,5,0,0,0,0,0,0,0,1239,0,No
2,3,12,0,2,6,0,0,0,0,0,0,0,1065,0,No
9,6,34,0,0,4,0,0,0,0,0,0,0,730,0,No
8,3,28,0,0,4,0,0,0,0,0,0,0,729,0,No
10,12,29,168,3,5,84,79,0,1,6,21,90,847,0,No
9,4,16,6,2,7,3,2,0,1,3,7,51,1348,0,No
0,1,0,0,0,2,0,0,0,0,0,0,0,389,0,No
4,5,4,0,1,6,0,0,0,0,0,0,0,1296,0,No
19,14,35,142,4,7,71,37,0,3,3,7,51,1341,0,No
5,5,8,0,1,6,0,0,0,0,0,0,0,756,0,No
11,14,19,18,5,7,9,6,0,3,3,7,51,1212,0,No
8,19,38,0,1,7,0,0,0,0,0,0,0,932,0,No
6,15,27,0,2,7,0,0,0,0,0,0,0,742,0,No
6,13,18,0,2,7,0,0,0,0,0,0,0,932,0,No
14,21,32,28,7,4,14,9,0,4,3,7,51,428,0,No
8,7,18,10,3,7,10,10,10,10,3,14,39,904,0,No
5,1,8,0,2,7,0,0,0,0,0,0,0,1296,0,No
1,3,12,0,1,3,0,0,0,0,0,0,0,709,0,No
5,9,33,0,2,6,0,0,0,0,0,0,0,837,0,No
7,28,39,0,2,7,0,0,0,0,0,0,0,837,0,No
12,1,19,0,0,2,0,0,0,0,0,0,0,467,0,No
23,4,30,0,0,5,0,0,0,0,0,0,0,1352,0,No
8,10,53,0,0,9,0,0,0,0,0,0,0,1131,0,No
2,0,6,0,2,7,0,0,0,0,0,0,0,1344,0,No
2,2,5,0,1,7,0,0,0,0,0,0,0,1344,0,No
1,4,10,0,2,5,0,0,0,0,0,0,0,1183,0,No
3,5,19,0,2,7,0,0,0,0,0,0,0,1183,0,No
1,9,20,0,3,6,0,0,0,0,0,0,0,917,0,No
2,2,2,0,0,5,0,0,0,0,0,0,0,948,0,No
11,0,21,0,0,2,0,0,0,0,0,0,0,394,0,No
2,2,5,0,1,3,0,0,0,0,0,0,0,948,0,No
10,25,37,0,3,8,0,0,0,0,0,0,0,1325,0,No
12,23,42,44,4,8,30,26,16,16,3,11,17,1316,0,No
6,9,15,0,4,7,0,0,0,0,0,0,0,1163,0,No
5,7,17,0,1,4,0,0,0,0,0,0,0,414,0,No
13,3,15,0,0,5,0,0,0,0,0,0,0,849,0,No
18,4,21,0,0,5,0,0,0,0,0,0,0,849,0,No
2,0,6,0,0,3,0,0,0,0,0,0,0,850,0,No
2,0,9,0,1,3,0,0,0,0,0,0,0,850,0,No
11,0,12,0,0,5,0,0,0,0,0,0,0,1435,0,No
15,1,26,0,0,5,0,0,0,0,0,0,0,1351,0,No
8,1,13,0,0,5,0,0,0,0,0,0,0,1435,0,No
3,1,3,0,0,4,0,0,0,0,0,0,0,1435,0,No
23,3,31,0,0,7,0,0,0,0,0,0,0,1375,0,No
11,2,27,0,1,4,0,0,0,0,0,0,0,515,0,No
12,0,12,0,0,5,0,0,0,0,0,0,0,1435,0,No
20,1,27,0,0,6,0,0,0,0,0,0,0,898,0,No
2,0,2,0,0,5,0,0,0,0,0,0,0,1396,0,No
2,4,18,0,2,2,0,0,0,0,0,0,0,156,0,No
1,1,11,0,2,4,0,0,0,0,0,0,0,1380,0,No
4,4,10,0,1,6,0,0,0,0,0,0,0,888,0,No
3,1,4,0,0,5,0,0,0,0,0,0,0,996,0,No
13,2,13,0,0,5,0,0,0,0,0,0,0,1287,0,No
2,3,12,0,2,6,0,0,0,0,0,0,0,1113,0,No
9,6,34,0,0,4,0,0,0,0,0,0,0,778,0,No
8,3,28,0,0,4,0,0,0,0,0,0,0,777,0,No
10,12,29,0,3,5,0,0,0,0,0,0,0,895,0,Yes
9,4,16,0,2,7,0,0,0,0,0,0,0,1396,0,No
0,1,0,0,0,2,0,0,0,0,0,0,0,437,0,No
4,5,4,0,1,6,0,0,0,0,0,0,0,1344,0,No
19,14,35,0,4,7,0,0,0,0,0,0,0,1389,0,No
5,5,8,0,1,6,0,0,0,0,0,0,0,804,0,No
11,14,19,0,5,7,0,0,0,0,0,0,0,1260,0,No
8,19,38,0,1,7,0,0,0,0,0,0,0,980,0,Yes
6,15,27,0,2,7,0,0,0,0,0,0,0,790,0,Yes
6,13,18,0,2,7,0,0,0,0,0,0,0,980,0,No
14,21,32,0,7,4,0,0,0,0,0,0,0,476,0,No
8,7,18,0,3,7,0,0,0,0,0,0,0,952,0,No
5,1,8,0,2,7,0,0,0,0,0,0,0,1344,0,No
1,3,12,0,1,3,0,0,0,0,0,0,0,757,0,No
5,9,33,0,2,6,0,0,0,0,0,0,0,885,0,No
12,1,19,0,0,2,0,0,0,0,0,0,0,515,0,No
23,4,30,0,0,5,0,0,0,0,0,0,0,1400,0,No
8,10,53,0,0,9,0,0,0,0,0,0,0,1179,0,No
2,0,6,0,2,7,0,0,0,0,0,0,0,1392,0,No
2,2,5,0,1,7,0,0,0,0,0,0,0,1392,0,No
1,4,10,0,2,5,0,0,0,0,0,0,0,1231,0,No
3,5,19,0,2,7,0,0,0,0,0,0,0,1231,0,No
1,9,20,0,3,6,0,0,0,0,0,0,0,965,0,No
2,2,2,0,0,5,0,0,0,0,0,0,0,996,0,No
11,0,21,0,0,2,0,0,0,0,0,0,0,442,0,No
2,2,5,0,1,3,0,0,0,0,0,0,0,996,0,No
10,25,37,0,3,8,0,0,0,0,0,0,0,1373,0,No
12,23,42,0,4,8,0,0,0,0,0,0,0,1364,0,No
6,9,15,0,4,7,0,0,0,0,0,0,0,1211,0,No
5,7,17,0,1,4,0,0,0,0,0,0,0,462,0,No
13,3,15,0,0,5,0,0,0,0,0,0,0,897,0,No
18,4,21,0,0,5,0,0,0,0,0,0,0,897,0,No
2,0,6,0,0,3,0,0,0,0,0,0,0,933,0,No
2,0,9,4,1,3,1,1,-2,0,1,1,1,933,0,No
11,0,12,0,0,5,0,0,0,0,0,0,0,1518,0,No
15,1,26,0,0,5,0,0,0,0,0,0,0,1434,0,No
8,1,13,0,0,5,0,0,0,0,0,0,0,1518,0,No
3,1,3,0,0,4,0,0,0,0,0,0,0,1518,0,No
23,3,31,0,0,7,0,0,0,0,0,0,0,1458,0,No
11,2,27,0,1,4,0,0,0,0,0,0,0,598,0,No
12,0,12,0,0,5,0,0,0,0,0,0,0,1518,0,No
20,1,27,0,0,6,0,0,0,0,0,0,0,981,0,No
2,0,2,1,0,6,1,1,1,1,2,2,2,1479,0,No
2,4,18,0,2,2,0,0,0,0,0,0,0,239,0,No
1,1,11,0,2,4,0,0,0,0,0,0,0,1463,0,No
4,4,10,0,1,6,0,0,0,0,0,0,0,971,0,No
3,1,4,0,0,5,0,0,0,0,0,0,0,1079,0,No
13,2,13,0,0,5,0,0,0,0,0,0,0,1370,0,No
2,3,12,0,2,6,0,0,0,0,0,0,0,1196,0,No
9,6,34,0,0,4,0,0,0,0,0,0,0,861,0,No
8,3,28,0,0,4,0,0,0,0,0,0,0,860,0,No
10,12,29,0,3,5,0,0,0,0,0,0,0,978,0,No
9,4,16,0,2,7,0,0,0,0,0,0,0,1479,0,No
0,1,0,0,0,2,0,0,0,0,0,0,0,520,0,No
4,5,4,1,2,6,1,1,1,1,1,1,1,1427,0,No
19,14,35,0,4,7,0,0,0,0,0,0,0,1472,0,No
5,5,8,0,1,6,0,0,0,0,0,0,0,887,0,No
11,14,19,0,5,7,0,0,0,0,0,0,0,1343,0,No
8,19,38,0,1,7,0,0,0,0,0,0,0,1063,0,No
6,15,27,0,2,7,0,0,0,0,0,0,0,873,0,No
6,11,9,24,0,7,3,3,-18,0,1,8,18,873,0,No
6,13,18,0,2,7,0,0,0,0,0,0,0,1063,0,No
14,21,32,0,7,4,0,0,0,0,0,0,0,559,0,No
8,7,18,0,3,7,0,0,0,0,0,0,0,1035,0,No
5,1,8,0,2,7,0,0,0,0,0,0,0,1427,0,Yes
1,3,12,0,1,3,0,0,0,0,0,0,0,840,0,No
5,9,33,2,2,6,1,1,0,0,1,16,36,968,0,Yes
12,1,19,0,0,2,0,0,0,0,0,0,0,598,0,No
23,4,30,0,0,5,0,0,0,0,0,0,0,1483,0,No
8,10,53,0,0,9,0,0,0,0,0,0,0,1262,0,No
2,0,6,0,2,7,0,0,0,0,0,0,0,1475,0,No
2,2,5,0,1,7,0,0,0,0,0,0,0,1475,0,No
1,4,10,0,2,5,0,0,0,0,0,0,0,1314,0,No
3,5,19,2,2,7,1,1,0,0,1,16,36,1314,0,No
1,9,20,0,3,6,0,0,0,0,0,0,0,1048,0,No
2,2,2,0,0,5,0,0,0,0,0,0,0,1079,0,No
11,0,21,0,0,2,0,0,0,0,0,0,0,525,0,No
2,2,5,0,1,3,0,0,0,0,0,0,0,1079,0,No
10,25,37,2,3,8,1,1,0,0,1,16,36,1456,0,No
12,23,42,5,4,9,2,2,-1,0,1,1,1,1447,0,No
6,9,16,4,4,7,2,1,0,0,2,19,39,1294,0,Yes
5,7,17,0,1,4,0,0,0,0,0,0,0,545,0,No
14,3,16,7,0,5,6,6,5,5,2,2,3,980,0,No
21,4,24,18,0,5,17,17,16,16,2,2,3,980,0,No
2,0,6,0,0,3,0,0,0,0,0,0,0,1000,0,No
2,0,9,0,1,3,0,0,0,0,0,0,0,1000,0,No
3,1,3,0,0,4,0,0,0,0,0,0,0,1585,0,No
2,0,5,108,0,6,54,54,0,0,5,19,136,1146,0,No
2,4,19,0,2,2,0,0,0,0,0,0,0,306,0,No
4,2,10,0,2,7,0,0,0,0,0,0,0,1038,0,No
3,1,4,0,0,5,0,0,0,0,0,0,0,1146,0,No
10,0,20,0,2,6,0,0,0,0,0,0,0,1300,0,Yes
2,3,12,0,2,6,0,0,0,0,0,0,0,1263,0,No
3,3,6,0,0,1,0,0,0,0,0,0,0,69,0,No
10,12,29,0,5,6,0,0,0,0,0,0,0,1045,0,No
6,2,10,0,2,8,0,0,0,0,0,0,0,1546,0,No
0,1,0,0,0,2,0,0,0,0,0,0,0,587,0,No
4,6,4,0,4,8,0,0,0,0,0,0,0,1494,0,No
19,14,35,0,5,8,0,0,0,0,0,0,0,1539,0,No
11,14,19,0,6,8,0,0,0,0,0,0,0,1410,0,No
10,9,20,18,6,8,18,18,18,18,3,23,42,1494,0,No
2,4,3,0,2,2,0,0,0,0,0,0,0,289,0,No
9,0,11,0,0,0,0,0,0,0,0,0,0,0,0,No
7,15,28,0,3,7,0,0,0,0,0,0,0,940,0,No
11,11,14,0,1,7,0,0,0,0,0,0,0,940,0,No
19,20,94,10,10,9,2,2,-6,0,5,15,18,940,0,No
6,13,18,0,2,8,0,0,0,0,0,0,0,1130,0,No
1,7,2,4,2,7,2,2,0,0,3,23,42,1042,0,No
16,20,34,0,8,5,0,0,0,0,0,0,0,626,0,No
2,0,7,0,0,1,0,0,0,0,0,0,0,289,0,No
7,4,7,2,3,6,1,1,0,0,1,1,3,1585,0,No
8,1,47,0,1,1,0,0,0,0,0,0,0,285,0,No
1,6,14,0,1,3,0,0,0,0,0,0,0,907,0,No
5,9,28,0,3,6,0,0,0,0,0,0,0,1035,0,Yes
7,0,19,0,0,1,0,0,0,0,0,0,0,332,0,No
2,1,6,0,2,7,0,0,0,0,0,0,0,1542,0,No
9,3,17,0,2,4,0,0,0,0,0,0,0,1585,0,No
2,3,6,0,1,7,0,0,0,0,0,0,0,1542,0,No
1,4,11,0,2,5,0,0,0,0,0,0,0,1381,0,No
2,2,2,0,0,6,0,0,0,0,0,0,0,1146,0,No
12,0,22,0,0,2,0,0,0,0,0,0,0,592,0,No
2,2,5,0,2,3,0,0,0,0,0,0,0,1146,0,No
2,10,11,0,0,4,0,0,0,0,0,0,0,940,0,No
10,24,35,0,3,8,0,0,0,0,0,0,0,1523,0,No
18,24,50,1,7,9,0,0,-1,0,3,23,42,1514,0,Yes
2,1,2,6,1,6,3,3,0,0,5,10,17,1546,0,No
4,10,14,0,0,3,0,0,0,0,0,0,0,88,0,No
10,14,18,0,0,1,0,0,0,0,0,0,0,73,0,No
9,12,22,2,0,2,1,1,0,0,3,23,42,73,0,No
6,2,20,0,1,4,0,0,0,0,0,0,0,734,0,No
4,0,6,86,0,1,85,84,84,84,7,17,28,34,0,No
9,13,33,0,0,5,0,0,0,0,0,0,0,1146,0,No
14,3,16,0,0,5,0,0,0,0,0,0,0,1047,0,No
21,4,24,0,0,5,0,0,0,0,0,0,0,1047,0,No
7,0,12,160,0,1,149,97,138,97,6,23,44,37,0,No
5,2,14,0,0,1,0,0,0,0,0,0,0,68,0,No
2,0,6,0,0,3,0,0,0,0,0,0,0,1025,0,No
2,0,9,0,1,3,0,0,0,0,0,0,0,1025,0,No
3,1,3,0,0,4,0,0,0,0,0,0,0,1610,0,No
2,0,5,0,0,6,0,0,0,0,0,0,0,1171,0,No
2,4,19,0,2,2,0,0,0,0,0,0,0,331,0,No
4,2,10,0,2,7,0,0,0,0,0,0,0,1063,0,No
3,1,4,0,0,5,0,0,0,0,0,0,0,1171,0,No
10,0,20,2,3,6,1,1,0,0,1,2,2,1325,0,No
2,3,12,0,2,6,0,0,0,0,0,0,0,1288,0,No
3,3,6,0,0,1,0,0,0,0,0,0,0,94,0,No
10,12,29,0,5,6,0,0,0,0,0,0,0,1070,0,No
6,2,10,0,2,8,0,0,0,0,0,0,0,1571,0,No
4,4,5,201,0,1,152,124,103,124,5,12,28,10,0,No
0,1,0,0,0,2,0,0,0,0,0,0,0,612,0,No
4,6,4,0,4,8,0,0,0,0,0,0,0,1519,0,No
19,14,35,0,5,8,0,0,0,0,0,0,0,1564,0,No
3,6,5,79,1,8,33,33,-13,0,4,10,35,1240,0,No
11,14,19,0,6,8,0,0,0,0,0,0,0,1435,0,No
10,9,20,4,6,8,3,3,2,2,4,10,35,1519,0,No
2,4,3,0,2,2,0,0,0,0,0,0,0,314,0,No
9,0,11,0,0,0,0,0,0,0,0,0,0,0,0,No
7,15,28,0,3,7,0,0,0,0,0,0,0,965,0,Yes
11,11,14,0,1,7,0,0,0,0,0,0,0,965,0,No
19,20,94,0,10,9,0,0,0,0,0,0,0,965,0,No
6,13,18,0,2,8,0,0,0,0,0,0,0,1155,0,No
1,7,2,0,2,7,0,0,0,0,0,0,0,1067,0,No
16,20,34,0,8,5,0,0,0,0,0,0,0,651,0,No
2,0,7,0,0,1,0,0,0,0,0,0,0,314,0,No
7,4,7,0,3,6,0,0,0,0,0,0,0,1610,0,No
8,1,47,0,1,1,0,0,0,0,0,0,0,310,0,No
1,6,14,0,1,3,0,0,0,0,0,0,0,932,0,No
5,9,29,24,6,6,17,10,10,10,6,29,64,1060,0,No
7,0,19,0,0,1,0,0,0,0,0,0,0,357,0,No
2,1,6,2,2,8,1,1,0,0,1,1,1,1567,0,No
9,3,17,0,2,4,0,0,0,0,0,0,0,1610,0,No
2,3,6,0,1,7,0,0,0,0,0,0,0,1567,0,No
1,4,11,0,2,5,0,0,0,0,0,0,0,1406,0,No
2,2,2,0,0,6,0,0,0,0,0,0,0,1171,0,No
12,0,22,0,0,2,0,0,0,0,0,0,0,617,0,No
2,2,5,0,2,3,0,0,0,0,0,0,0,1171,0,No
2,10,11,0,0,4,0,0,0,0,0,0,0,965,0,No
10,24,35,0,3,8,0,0,0,0,0,0,0,1548,0,Yes
18,24,51,2,7,10,1,1,0,0,1,1,8,1539,0,Yes
2,1,2,0,1,6,0,0,0,0,0,0,0,1571,0,No
4,10,14,0,0,3,0,0,0,0,0,0,0,113,0,No
10,14,18,0,0,1,0,0,0,0,0,0,0,98,0,No
9,12,22,0,0,2,0,0,0,0,0,0,0,98,0,No
4,0,6,0,0,1,0,0,0,0,0,0,0,59,0,No
9,13,33,0,0,5,0,0,0,0,0,0,0,1171,0,No
14,3,16,0,0,5,0,0,0,0,0,0,0,1072,0,No
21,4,24,0,0,5,0,0,0,0,0,0,0,1072,0,No
9,0,28,115,0,2,104,73,93,68,3,10,25,62,0,No
5,2,15,29,0,2,24,24,19,19,1,4,11,93,0,No
2,0,6,0,0,3,0,0,0,0,0,0,0,1070,0,No
2,0,9,0,1,3,0,0,0,0,0,0,0,1070,0,No
3,1,3,0,0,4,0,0,0,0,0,0,0,1655,0,No
2,0,5,0,0,6,0,0,0,0,0,0,0,1216,0,No
2,4,19,0,2,2,0,0,0,0,0,0,0,376,0,No
4,2,10,0,2,7,0,0,0,0,0,0,0,1108,0,No
3,1,4,0,0,5,0,0,0,0,0,0,0,1216,0,No
10,0,20,0,3,6,0,0,0,0,0,0,0,1370,0,No
2,3,12,0,2,6,0,0,0,0,0,0,0,1333,0,No
3,3,6,0,0,1,0,0,0,0,0,0,0,139,0,No
10,12,29,4,5,6,2,2,0,0,1,7,31,1115,0,No
6,2,10,0,2,8,0,0,0,0,0,0,0,1616,0,No
4,5,5,4,0,2,2,2,0,0,1,6,31,55,0,No
0,1,0,0,0,2,0,0,0,0,0,0,0,657,0,No
19,14,35,6,5,8,3,3,0,0,1,7,31,1609,0,No
3,6,5,0,1,8,0,0,0,0,0,0,0,1285,0,No
11,14,19,0,6,8,0,0,0,0,0,0,0,1480,0,No
10,11,20,21,7,8,8,4,-5,2,4,20,70,1564,0,No
2,4,3,0,2,2,0,0,0,0,0,0,0,359,0,No
9,0,11,0,0,0,0,0,0,0,0,0,0,0,0,No
8,4,19,22,2,3,11,11,0,0,1,6,31,376,0,No
4,8,17,231,6,7,56,53,-119,1,5,8,10,1010,0,No
11,11,14,0,1,7,0,0,0,0,0,0,0,1010,0,No
19,20,94,0,10,9,0,0,0,0,0,0,0,1010,0,No
6,13,18,6,2,8,3,3,0,0,3,11,23,1200,0,No
9,15,10,19,3,7,9,4,-1,1,3,19,78,1101,0,No
1,7,2,0,2,7,0,0,0,0,0,0,0,1112,0,No
16,20,34,0,8,5,0,0,0,0,0,0,0,696,0,No
2,0,7,0,0,1,0,0,0,0,0,0,0,359,0,No
7,4,7,0,3,6,0,0,0,0,0,0,0,1655,0,No
8,1,47,0,1,1,0,0,0,0,0,0,0,355,0,Yes
1,6,14,0,1,3,0,0,0,0,0,0,0,977,0,No
5,9,29,0,6,6,0,0,0,0,0,0,0,1105,0,Yes
7,0,19,0,0,1,0,0,0,0,0,0,0,402,0,No
2,1,6,0,2,8,0,0,0,0,0,0,0,1612,0,No
9,3,17,0,2,4,0,0,0,0,0,0,0,1655,0,No
2,3,6,0,1,7,0,0,0,0,0,0,0,1612,0,No
1,4,11,0,2,5,0,0,0,0,0,0,0,1451,0,No
2,2,2,0,0,6,0,0,0,0,0,0,0,1216,0,No
12,0,22,0,0,2,0,0,0,0,0,0,0,662,0,No
2,2,5,0,2,3,0,0,0,0,0,0,0,1216,0,No
2,1,2,0,1,6,0,0,0,0,0,0,0,1616,0,No
4,10,14,0,0,3,0,0,0,0,0,0,0,158,0,No
10,14,18,0,0,1,0,0,0,0,0,0,0,143,0,No
9,12,22,0,0,2,0,0,0,0,0,0,0,143,0,No
4,0,6,0,0,1,0,0,0,0,0,0,0,104,0,No
9,13,33,0,0,5,0,0,0,0,0,0,0,1216,0,No
14,3,16,0,0,5,0,0,0,0,0,0,0,1117,0,No
21,4,24,0,0,5,0,0,0,0,0,0,0,1117,0,No
9,0,29,8,0,3,6,6,4,4,1,2,2,107,0,No
5,2,15,0,0,2,0,0,0,0,0,0,0,138,0,No
2,0,6,0,0,3,0,0,0,0,0,0,0,1144,0,No
2,0,9,0,1,3,0,0,0,0,0,0,0,1144,0,No
3,1,3,0,0,4,0,0,0,0,0,0,0,1729,0,No
2,0,5,0,0,6,0,0,0,0,0,0,0,1290,0,No
2,4,19,0,2,2,0,0,0,0,0,0,0,450,0,No
4,2,10,0,2,7,0,0,0,0,0,0,0,1182,0,No
3,1,4,0,0,5,0,0,0,0,0,0,0,1290,0,No
10,0,20,0,3,6,0,0,0,0,0,0,0,1444,0,No
2,3,12,0,2,6,0,0,0,0,0,0,0,1407,0,No
3,3,6,0,0,1,0,0,0,0,0,0,0,213,0,No
10,12,29,0,5,6,0,0,0,0,0,0,0,1189,0,No
6,2,10,0,2,8,0,0,0,0,0,0,0,1690,0,No
4,5,5,0,0,2,0,0,0,0,0,0,0,129,0,No
0,1,0,0,0,2,0,0,0,0,0,0,0,731,0,No
19,14,35,0,5,8,0,0,0,0,0,0,0,1683,0,No
3,6,5,0,1,8,0,0,0,0,0,0,0,1359,0,No
11,14,19,0,6,8,0,0,0,0,0,0,0,1554,0,No
10,11,20,0,7,8,0,0,0,0,0,0,0,1638,0,No
2,4,3,0,2,2,0,0,0,0,0,0,0,433,0,No
9,0,11,0,0,0,0,0,0,0,0,0,0,0,0,No
8,4,19,0,2,3,0,0,0,0,0,0,0,450,0,No
4,8,17,0,6,7,0,0,0,0,0,0,0,1084,0,No
11,11,14,0,1,7,0,0,0,0,0,0,0,1084,0,No
19,20,94,0,10,9,0,0,0,0,0,0,0,1084,0,No
6,13,18,0,2,8,0,0,0,0,0,0,0,1274,0,No
9,15,10,0,3,7,0,0,0,0,0,0,0,1175,0,No
1,7,2,0,2,7,0,0,0,0,0,0,0,1186,0,No
16,20,34,0,8,5,0,0,0,0,0,0,0,770,0,No
2,0,7,0,0,1,0,0,0,0,0,0,0,433,0,No
7,4,7,0,3,6,0,0,0,0,0,0,0,1729,0,No
8,1,47,4,2,2,2,2,0,0,1,1,1,429,0,No
1,6,14,0,1,3,0,0,0,0,0,0,0,1051,0,No
5,8,29,11,7,6,2,2,-7,0,1,1,2,1179,0,No
7,0,19,0,0,1,0,0,0,0,0,0,0,476,0,No
2,1,6,0,2,8,0,0,0,0,0,0,0,1686,0,No
9,3,17,0,2,4,0,0,0,0,0,0,0,1729,0,No
2,3,6,0,1,7,0,0,0,0,0,0,0,1686,0,No
1,4,11,0,2,5,0,0,0,0,0,0,0,1525,0,No
2,2,2,0,0,6,0,0,0,0,0,0,0,1290,0,No
12,0,22,0,0,2,0,0,0,0,0,0,0,736,0,No
2,2,5,0,2,3,0,0,0,0,0,0,0,1290,0,No
2,1,2,0,1,6,0,0,0,0,0,0,0,1690,0,No
4,10,14,0,0,3,0,0,0,0,0,0,0,232,0,No
10,14,18,0,0,1,0,0,0,0,0,0,0,217,0,Yes
9,12,22,0,0,2,0,0,0,0,0,0,0,217,0,Yes
4,0,6,0,0,1,0,0,0,0,0,0,0,178,0,No
9,13,33,0,0,5,0,0,0,0,0,0,0,1290,0,No
14,3,16,0,0,5,0,0,0,0,0,0,0,1191,0,No
21,4,24,0,0,5,0,0,0,0,0,0,0,1191,0,No
9,0,29,0,0,3,0,0,0,0,0,0,0,181,0,No
5,2,15,0,0,2,0,0,0,0,0,0,0,212,0,No
2,0,6,0,0,3,0,0,0,0,0,0,0,1193,0,No
2,0,9,0,1,3,0,0,0,0,0,0,0,1193,0,No
3,1,3,0,0,4,0,0,0,0,0,0,0,1778,0,No
2,0,5,0,0,6,0,0,0,0,0,0,0,1339,0,No
2,4,19,0,2,2,0,0,0,0,0,0,0,499,0,No
4,2,10,0,2,7,0,0,0,0,0,0,0,1231,0,No
3,1,4,0,0,5,0,0,0,0,0,0,0,1339,0,No
10,0,20,0,3,6,0,0,0,0,0,0,0,1493,0,No
2,3,12,0,2,6,0,0,0,0,0,0,0,1456,0,No
3,3,6,0,0,1,0,0,0,0,0,0,0,262,0,No
10,12,29,0,5,6,0,0,0,0,0,0,0,1238,0,No
6,2,10,0,2,8,0,0,0,0,0,0,0,1739,0,No
4,5,5,0,0,2,0,0,0,0,0,0,0,178,0,No
0,1,0,0,0,2,0,0,0,0,0,0,0,780,0,No
19,14,35,0,5,8,0,0,0,0,0,0,0,1732,0,No
3,6,5,0,1,8,0,0,0,0,0,0,0,1408,0,No
11,14,19,0,6,8,0,0,0,0,0,0,0,1603,0,No
10,11,20,0,7,8,0,0,0,0,0,0,0,1687,0,No
2,4,3,0,2,2,0,0,0,0,0,0,0,482,0,No
9,0,11,0,0,0,0,0,0,0,0,0,0,0,0,No
8,4,19,0,2,3,0,0,0,0,0,0,0,499,0,No
4,8,17,0,6,7,0,0,0,0,0,0,0,1133,0,No
11,11,14,0,1,7,0,0,0,0,0,0,0,1133,0,No
19,20,94,0,10,9,0,0,0,0,0,0,0,1133,0,No
6,13,18,0,2,8,0,0,0,0,0,0,0,1323,0,No
9,15,10,0,3,7,0,0,0,0,0,0,0,1224,0,No
1,7,2,0,2,7,0,0,0,0,0,0,0,1235,0,No
16,20,34,0,8,5,0,0,0,0,0,0,0,819,0,No
2,0,7,0,0,1,0,0,0,0,0,0,0,482,0,No
7,4,7,0,3,6,0,0,0,0,0,0,0,1778,0,No
8,1,47,0,2,2,0,0,0,0,0,0,0,478,0,No
1,6,14,0,1,3,0,0,0,0,0,0,0,1100,0,No
5,8,29,0,7,6,0,0,0,0,0,0,0,1228,0,No
7,0,19,0,0,1,0,0,0,0,0,0,0,525,0,No
2,1,6,0,2,8,0,0,0,0,0,0,0,1735,0,No
9,3,17,0,2,4,0,0,0,0,0,0,0,1778,0,No
2,3,6,0,1,7,0,0,0,0,0,0,0,1735,0,No
1,4,11,0,2,5,0,0,0,0,0,0,0,1574,0,No
2,2,2,0,0,6,0,0,0,0,0,0,0,1339,0,No
12,0,22,0,0,2,0,0,0,0,0,0,0,785,0,No
2,2,5,0,2,3,0,0,0,0,0,0,0,1339,0,No
2,1,2,0,1,6,0,0,0,0,0,0,0,1739,0,No
4,10,14,0,0,3,0,0,0,0,0,0,0,281,0,No
10,14,18,0,0,1,0,0,0,0,0,0,0,266,0,Yes
9,12,22,0,0,2,0,0,0,0,0,0,0,266,0,Yes
4,0,6,0,0,1,0,0,0,0,0,0,0,227,0,No
9,13,33,0,0,5,0,0,0,0,0,0,0,1339,0,No
14,3,16,0,0,5,0,0,0,0,0,0,0,1240,0,No
21,4,24,0,0,5,0,0,0,0,0,0,0,1240,0,No
9,0,29,0,0,3,0,0,0,0,0,0,0,230,0,No
5,2,16,2,0,3,1,1,0,0,2,6,6,261,0,No
2,0,6,0,0,3,0,0,0,0,0,0,0,1239,0,No
2,0,9,0,1,3,0,0,0,0,0,0,0,1239,0,No
3,1,3,0,0,4,0,0,0,0,0,0,0,1824,0,No
2,0,5,0,0,6,0,0,0,0,0,0,0,1385,0,No
2,4,19,0,2,2,0,0,0,0,0,0,0,545,0,No
4,2,10,0,2,7,0,0,0,0,0,0,0,1277,0,No
3,1,4,0,0,5,0,0,0,0,0,0,0,1385,0,No
10,0,20,0,3,6,0,0,0,0,0,0,0,1539,0,No
2,3,12,0,2,6,0,0,0,0,0,0,0,1502,0,No
3,3,6,0,0,1,0,0,0,0,0,0,0,308,0,No
10,12,29,0,5,6,0,0,0,0,0,0,0,1284,0,No
6,2,10,0,2,8,0,0,0,0,0,0,0,1785,0,No
4,5,5,0,0,2,0,0,0,0,0,0,0,224,0,No
0,1,0,0,0,2,0,0,0,0,0,0,0,826,0,No
19,14,35,0,5,8,0,0,0,0,0,0,0,1778,0,No
3,5,5,2,1,8,0,0,-2,0,2,7,17,1454,0,No
11,14,19,0,6,8,0,0,0,0,0,0,0,1649,0,No
10,11,20,0,7,8,0,0,0,0,0,0,0,1733,0,Yes
2,4,3,0,2,2,0,0,0,0,0,0,0,528,0,No
9,0,11,0,0,0,0,0,0,0,0,0,0,0,0,No
8,4,19,0,2,3,0,0,0,0,0,0,0,545,0,No
4,8,17,0,6,7,0,0,0,0,0,0,0,1179,0,No
11,11,14,0,1,7,0,0,0,0,0,0,0,1179,0,No
19,20,94,0,10,9,0,0,0,0,0,0,0,1179,0,No
6,13,18,0,2,8,0,0,0,0,0,0,0,1369,0,No
9,15,10,0,3,7,0,0,0,0,0,0,0,1270,0,No
1,7,2,0,2,7,0,0,0,0,0,0,0,1281,0,Yes
16,20,34,0,8,5,0,0,0,0,0,0,0,865,0,No
2,0,7,0,0,1,0,0,0,0,0,0,0,528,0,No
7,4,7,0,3,6,0,0,0,0,0,0,0,1824,0,No
8,1,47,0,2,2,0,0,0,0,0,0,0,524,0,No
1,6,14,0,1,3,0,0,0,0,0,0,0,1146,0,No
5,8,29,0,7,6,0,0,0,0,0,0,0,1274,0,No
7,0,19,0,0,1,0,0,0,0,0,0,0,571,0,No
2,1,6,0,2,8,0,0,0,0,0,0,0,1781,0,No
9,3,17,0,2,4,0,0,0,0,0,0,0,1824,0,No
2,3,6,0,1,7,0,0,0,0,0,0,0,1781,0,No
1,4,11,0,2,5,0,0,0,0,0,0,0,1620,0,No
2,2,2,0,0,6,0,0,0,0,0,0,0,1385,0,No
12,0,22,0,0,2,0,0,0,0,0,0,0,831,0,No
2,2,5,0,2,3,0,0,0,0,0,0,0,1385,0,No
11,11,51,46,4,7,41,41,36,36,2,7,8,836,0,No
2,1,2,0,1,6,0,0,0,0,0,0,0,1785,0,No
4,10,14,0,0,3,0,0,0,0,0,0,0,327,0,No
10,13,18,11,0,2,5,5,-1,0,2,7,17,312,0,Yes
9,11,22,12,0,3,5,5,-2,0,2,7,17,312,0,Yes
4,0,6,0,0,1,0,0,0,0,0,0,0,273,0,No
9,13,33,0,0,5,0,0,0,0,0,0,0,1385,0,No
14,3,16,0,0,5,0,0,0,0,0,0,0,1286,0,No
21,4,24,0,0,5,0,0,0,0,0,0,0,1286,0,No
9,0,29,0,0,3,0,0,0,0,0,0,0,276,0,No
5,2,16,0,0,3,0,0,0,0,0,0,0,307,0,No
2,0,6,0,0,3,0,0,0,0,0,0,0,1323,0,No
2,0,9,0,1,3,0,0,0,0,0,0,0,1323,0,No
3,1,3,0,0,4,0,0,0,0,0,0,0,1908,0,No
2,0,5,0,0,6,0,0,0,0,0,0,0,1469,0,No
2,4,19,0,2,2,0,0,0,0,0,0,0,629,0,No
4,2,10,0,2,7,0,0,0,0,0,0,0,1361,0,No
3,1,4,0,0,5,0,0,0,0,0,0,0,1469,0,No
10,0,20,0,3,6,0,0,0,0,0,0,0,1623,0,No
2,3,12,0,2,6,0,0,0,0,0,0,0,1586,0,No
3,3,6,0,0,1,0,0,0,0,0,0,0,392,0,No
10,12,29,0,5,6,0,0,0,0,0,0,0,1368,0,No
6,2,10,0,2,8,0,0,0,0,0,0,0,1869,0,No
4,5,5,0,0,2,0,0,0,0,0,0,0,308,0,No
0,1,0,0,0,2,0,0,0,0,0,0,0,910,0,No
19,14,35,0,5,8,0,0,0,0,0,0,0,1862,0,No
3,5,5,0,1,8,0,0,0,0,0,0,0,1538,0,No
11,14,19,0,6,8,0,0,0,0,0,0,0,1733,0,No
10,11,20,18,8,8,7,7,-4,0,1,2,6,1817,0,No
2,4,3,0,2,2,0,0,0,0,0,0,0,612,0,No
9,0,11,0,0,0,0,0,0,0,0,0,0,0,0,No
8,4,19,0,2,3,0,0,0,0,0,0,0,629,0,No
4,8,17,0,6,7,0,0,0,0,0,0,0,1263,0,No
11,11,14,0,1,7,0,0,0,0,0,0,0,1263,0,No
19,20,94,0,10,9,0,0,0,0,0,0,0,1263,0,No
6,13,18,0,2,8,0,0,0,0,0,0,0,1453,0,No
9,15,10,0,3,7,0,0,0,0,0,0,0,1354,0,No
16,20,32,13,8,5,2,2,-9,0,3,15,23,949,0,No
2,0,7,0,0,1,0,0,0,0,0,0,0,612,0,No
7,4,7,0,3,6,0,0,0,0,0,0,0,1908,0,No
8,1,47,0,2,2,0,0,0,0,0,0,0,608,0,No
1,6,14,0,1,3,0,0,0,0,0,0,0,1230,0,No
5,8,29,0,7,6,0,0,0,0,0,0,0,1358,0,No
7,0,19,0,0,1,0,0,0,0,0,0,0,655,0,No
2,1,6,0,2,8,0,0,0,0,0,0,0,1865,0,No
9,3,17,0,2,4,0,0,0,0,0,0,0,1908,0,No
2,3,6,0,1,7,0,0,0,0,0,0,0,1865,0,No
1,4,11,0,2,5,0,0,0,0,0,0,0,1704,0,No
2,2,2,0,0,6,0,0,0,0,0,0,0,1469,0,No
12,0,22,0,0,2,0,0,0,0,0,0,0,915,0,No
5,11,12,70,3,7,52,24,34,23,4,12,18,1461,0,No
2,2,5,0,2,3,0,0,0,0,0,0,0,1469,0,No
3,1,9,15,1,5,0,0,-15,0,1,2,2,1337,0,No
4,7,38,267,1,2,228,155,189,155,6,23,41,67,0,No
11,11,51,0,4,7,0,0,0,0,0,0,0,920,0,No
2,1,2,0,1,6,0,0,0,0,0,0,0,1869,0,No
4,10,14,0,0,3,0,0,0,0,0,0,0,411,0,No
10,13,18,12,1,2,5,5,-2,0,1,1,2,396,0,No
9,11,22,11,1,3,4,4,-3,0,1,1,2,396,0,No
4,0,6,0,0,1,0,0,0,0,0,0,0,357,0,No
9,13,33,0,0,5,0,0,0,0,0,0,0,1469,0,No
14,3,16,0,0,5,0,0,0,0,0,0,0,1370,0,No
21,4,24,0,0,5,0,0,0,0,0,0,0,1370,0,No
9,0,29,0,0,3,0,0,0,0,0,0,0,360,0,No
5,2,16,0,0,3,0,0,0,0,0,0,0,391,0,No
2,0,4,103,0,3,83,62,63,62,39,355,2732,254,0,No
2,0,4,289,0,3,166,35,43,35,78,542,3118,822,0,No
10,0,21,548,0,4,364,168,180,168,43,356,2717,537,0,No
2,4,5,394,0,3,255,105,116,105,67,522,3337,677,0,No
6,12,16,405,0,4,332,156,259,156,46,413,2929,272,0,No
8,8,16,8738,0,4,4477,703,216,485,141,820,4137,731,0,No
2,6,10,246,0,3,192,118,138,118,37,344,2736,177,0,No
7,5,11,8962,0,4,4558,539,154,450,174,975,4554,783,0,No
8,17,38,1112,0,5,690,329,268,329,69,511,3239,367,0,No
2,5,7,796,0,3,485,376,174,376,32,321,2637,177,0,No
9,7,29,509,0,1,433,388,357,388,21,226,1901,165,0,No
4,0,5,422,0,5,255,201,88,201,43,376,2797,339,0,No
8,8,12,1093,0,4,624,142,155,142,117,864,3880,698,0,No
2,6,19,137,0,1,130,123,123,123,9,88,788,130,0,No
16,1,31,622,0,3,393,88,164,82,85,623,3333,811,0,No
22,4,33,1350,0,4,796,126,242,126,131,881,3893,809,0,No
17,16,79,1008,0,6,766,256,524,250,89,648,3334,566,0,No
2,4,11,182,0,3,136,66,90,66,43,404,2811,618,0,No
2,9,21,343,0,4,227,77,111,77,55,462,2957,352,0,No
5,8,9,257,0,4,200,134,143,134,35,330,2658,279,0,No
3,16,29,1692,0,3,962,109,232,103,130,896,3845,772,0,No
6,3,6,135,0,4,99,59,63,59,37,343,2635,258,0,No
2,0,4,0,0,3,0,0,0,0,0,0,0,277,0,No
2,0,4,0,0,3,0,0,0,0,0,0,0,845,0,No
10,0,21,0,0,4,0,0,0,0,0,0,0,560,0,No
2,4,5,0,0,3,0,0,0,0,0,0,0,700,0,No
6,12,16,0,0,4,0,0,0,0,0,0,0,295,0,No
8,8,16,0,0,4,0,0,0,0,0,0,0,754,0,No
2,6,10,0,0,3,0,0,0,0,0,0,0,200,0,No
7,5,11,0,0,4,0,0,0,0,0,0,0,806,0,No
8,17,38,0,0,5,0,0,0,0,0,0,0,390,0,No
2,5,7,0,0,3,0,0,0,0,0,0,0,200,0,No
9,7,29,0,0,1,0,0,0,0,0,0,0,188,0,No
4,0,5,0,0,5,0,0,0,0,0,0,0,362,0,No
8,8,12,0,0,4,0,0,0,0,0,0,0,721,0,No
2,6,19,0,0,1,0,0,0,0,0,0,0,153,0,No
16,1,31,0,0,3,0,0,0,0,0,0,0,834,0,No
22,4,33,0,0,4,0,0,0,0,0,0,0,832,0,No
17,16,79,0,0,6,0,0,0,0,0,0,0,589,0,No
2,4,11,0,0,3,0,0,0,0,0,0,0,641,0,No
2,9,21,0,0,4,0,0,0,0,0,0,0,375,0,No
5,8,9,0,0,4,0,0,0,0,0,0,0,302,0,No
3,16,29,0,0,3,0,0,0,0,0,0,0,795,0,No
6,3,6,0,0,4,0,0,0,0,0,0,0,281,0,No
2,0,4,0,0,3,0,0,0,0,0,0,0,309,0,No
2,0,4,0,0,3,0,0,0,0,0,0,0,877,0,No
10,0,21,0,0,4,0,0,0,0,0,0,0,592,0,No
2,4,5,4,0,4,2,2,0,0,1,2,25,732,0,No
6,12,16,10,0,5,5,3,0,0,4,16,55,327,0,No
1,3,3,3,0,4,0,0,-3,0,1,2,25,838,0,No
8,8,16,4,0,5,2,2,0,0,1,2,25,786,0,No
2,6,10,0,0,3,0,0,0,0,0,0,0,232,0,Yes
7,5,11,2,0,5,1,1,0,0,1,2,25,838,0,No
8,17,38,0,0,5,0,0,0,0,0,0,0,422,0,No
2,5,7,0,0,3,0,0,0,0,0,0,0,232,0,No
9,7,29,4,0,2,2,2,0,0,3,14,30,220,0,No
4,0,5,0,0,5,0,0,0,0,0,0,0,394,0,No
8,8,12,0,0,4,0,0,0,0,0,0,0,753,0,No
2,6,19,0,0,1,0,0,0,0,0,0,0,185,0,No
22,4,33,0,0,4,0,0,0,0,0,0,0,864,0,No
17,16,79,4,0,6,2,2,0,0,3,14,30,621,0,No
2,4,11,0,0,3,0,0,0,0,0,0,0,673,0,No
2,9,21,0,0,4,0,0,0,0,0,0,0,407,0,No
5,8,9,0,0,4,0,0,0,0,0,0,0,334,0,No
3,16,30,0,0,3,0,0,0,0,0,0,0,827,0,No
6,3,6,0,0,4,0,0,0,0,0,0,0,313,0,No
2,0,4,0,0,3,0,0,0,0,0,0,0,311,0,No
2,0,4,0,0,3,0,0,0,0,0,0,0,879,0,No
10,0,21,0,0,4,0,0,0,0,0,0,0,594,0,No
2,4,5,0,0,4,0,0,0,0,0,0,0,734,0,No
6,12,16,0,0,5,0,0,0,0,0,0,0,329,0,No
1,3,3,0,0,4,0,0,0,0,0,0,0,840,0,No
8,8,16,0,0,5,0,0,0,0,0,0,0,788,0,No
2,6,10,0,0,3,0,0,0,0,0,0,0,234,0,Yes
7,5,11,0,0,5,0,0,0,0,0,0,0,840,0,No
8,17,38,0,0,5,0,0,0,0,0,0,0,424,0,No
2,5,7,0,0,3,0,0,0,0,0,0,0,234,0,No
9,7,29,0,0,2,0,0,0,0,0,0,0,222,0,No
4,0,5,0,0,5,0,0,0,0,0,0,0,396,0,No
8,8,12,0,0,4,0,0,0,0,0,0,0,755,0,No
2,6,19,0,0,1,0,0,0,0,0,0,0,187,0,No
16,1,31,0,0,3,0,0,0,0,0,0,0,868,0,Yes
22,4,33,0,0,4,0,0,0,0,0,0,0,866,0,No
17,16,79,0,0,6,0,0,0,0,0,0,0,623,0,No
2,4,11,0,0,3,0,0,0,0,0,0,0,675,0,No
2,9,21,0,0,4,0,0,0,0,0,0,0,409,0,No
5,8,9,0,0,4,0,0,0,0,0,0,0,336,0,No
3,16,29,0,0,3,0,0,0,0,0,0,0,829,0,Yes
6,3,6,0,0,4,0,0,0,0,0,0,0,315,0,No
2,0,4,0,0,3,0,0,0,0,0,0,0,380,0,No
2,0,4,0,0,3,0,0,0,0,0,0,0,948,0,No
10,0,21,0,0,4,0,0,0,0,0,0,0,663,0,Yes
2,4,5,0,0,4,0,0,0,0,0,0,0,803,0,No
6,12,16,0,0,5,0,0,0,0,0,0,0,398,0,No
1,3,3,0,0,4,0,0,0,0,0,0,0,909,0,No
8,8,16,0,0,5,0,0,0,0,0,0,0,857,0,No
2,6,11,11,1,3,6,6,1,1,3,8,8,303,0,No
7,5,11,0,0,5,0,0,0,0,0,0,0,909,0,No
8,17,38,0,0,5,0,0,0,0,0,0,0,493,0,No
2,5,7,0,0,3,0,0,0,0,0,0,0,303,0,No
9,7,29,0,0,2,0,0,0,0,0,0,0,291,0,No
4,0,5,0,0,5,0,0,0,0,0,0,0,465,0,No
8,8,12,0,0,4,0,0,0,0,0,0,0,824,0,Yes
2,6,19,0,0,1,0,0,0,0,0,0,0,256,0,No
22,4,33,0,0,4,0,0,0,0,0,0,0,935,0,No
17,16,79,0,0,6,0,0,0,0,0,0,0,692,0,No
2,4,11,0,0,3,0,0,0,0,0,0,0,744,0,No
2,9,21,0,0,4,0,0,0,0,0,0,0,478,0,No
5,8,9,0,0,4,0,0,0,0,0,0,0,405,0,No
3,16,30,25,1,3,13,13,1,1,2,4,4,898,0,No
6,3,6,0,0,4,0,0,0,0,0,0,0,384,0,No
2,0,4,0,0,3,0,0,0,0,0,0,0,424,0,No
2,0,4,0,0,3,0,0,0,0,0,0,0,992,0,No
10,0,21,0,0,4,0,0,0,0,0,0,0,707,0,No
2,4,5,0,0,4,0,0,0,0,0,0,0,847,0,Yes
6,12,16,53,0,5,29,29,5,5,1,2,2,442,0,Yes
1,3,3,0,0,4,0,0,0,0,0,0,0,953,0,Yes
8,8,16,0,0,5,0,0,0,0,0,0,0,901,0,Yes
2,6,11,0,1,3,0,0,0,0,0,0,0,347,0,No
7,5,11,0,0,5,0,0,0,0,0,0,0,953,0,Yes
8,17,38,0,0,5,0,0,0,0,0,0,0,537,0,Yes
25,18,44,15,1,5,2,2,-11,0,1,2,3,445,0,Yes
2,5,7,0,0,3,0,0,0,0,0,0,0,347,0,No
9,7,29,0,0,2,0,0,0,0,0,0,0,335,0,No
4,0,5,0,0,5,0,0,0,0,0,0,0,509,0,No
8,8,12,6,0,4,4,4,2,2,2,9,15,868,0,No
2,6,19,0,0,1,0,0,0,0,0,0,0,300,0,No
22,4,33,3,0,4,3,3,3,3,1,1,1,979,0,No
17,16,79,0,0,6,0,0,0,0,0,0,0,736,0,No
2,4,11,0,0,3,0,0,0,0,0,0,0,788,0,No
2,9,21,0,0,4,0,0,0,0,0,0,0,522,0,No
5,8,9,0,0,4,0,0,0,0,0,0,0,449,0,No
3,16,30,0,1,3,0,0,0,0,0,0,0,942,0,No
6,3,6,0,0,4,0,0,0,0,0,0,0,428,0,No
2,0,4,0,0,3,0,0,0,0,0,0,0,459,0,No
2,0,4,0,0,3,0,0,0,0,0,0,0,1027,0,No
10,0,21,0,0,4,0,0,0,0,0,0,0,742,0,No
2,5,5,20,0,4,10,10,0,0,1,9,92,882,0,No
6,13,16,16,1,5,9,8,2,1,2,10,97,477,0,No
1,3,3,0,0,4,0,0,0,0,0,0,0,988,0,No
8,8,16,30,1,5,14,11,-2,1,6,19,120,936,0,Yes
2,6,11,0,1,3,0,0,0,0,0,0,0,382,0,No
7,7,11,59,1,5,31,19,3,4,2,10,97,988,0,Yes
8,17,38,0,0,5,0,0,0,0,0,0,0,572,0,No
25,19,44,29,2,5,15,9,1,2,2,12,98,480,0,Yes
2,5,7,12,0,3,9,9,6,6,1,3,4,382,0,No
9,7,29,16,0,2,8,8,0,0,1,9,92,370,0,No
4,0,5,0,0,5,0,0,0,0,0,0,0,544,0,No
8,8,12,0,0,4,0,0,0,0,0,0,0,903,0,No
2,6,19,0,0,1,0,0,0,0,0,0,0,335,0,Yes
22,4,33,0,0,4,0,0,0,0,0,0,0,1014,0,Yes
2,4,11,0,0,3,0,0,0,0,0,0,0,823,0,Yes
2,9,21,0,0,4,0,0,0,0,0,0,0,557,0,Yes
5,8,9,0,0,4,0,0,0,0,0,0,0,484,0,Yes
3,16,30,0,1,3,0,0,0,0,0,0,0,977,0,No
6,3,6,0,0,4,0,0,0,0,0,0,0,463,0,No
2,0,4,0,0,3,0,0,0,0,0,0,0,486,0,No
2,0,4,0,0,3,0,0,0,0,0,0,0,1054,0,No
10,0,21,0,0,4,0,0,0,0,0,0,0,769,0,No
2,5,5,0,0,4,0,0,0,0,0,0,0,909,0,No
6,13,16,0,1,5,0,0,0,0,0,0,0,504,0,Yes
4,2,6,68,0,5,48,45,28,28,2,9,10,1015,0,No
8,8,16,6,1,5,3,3,0,0,1,1,1,963,0,No
2,6,11,0,1,3,0,0,0,0,0,0,0,409,0,No
7,7,11,0,1,5,0,0,0,0,0,0,0,1015,0,No
8,17,38,0,0,5,0,0,0,0,0,0,0,599,0,No
2,5,7,0,0,3,0,0,0,0,0,0,0,409,0,No
9,7,29,0,0,2,0,0,0,0,0,0,0,397,0,No
4,0,5,0,0,5,0,0,0,0,0,0,0,571,0,No
8,8,12,0,0,4,0,0,0,0,0,0,0,930,0,No
2,6,19,0,0,1,0,0,0,0,0,0,0,362,0,No
22,4,33,0,0,4,0,0,0,0,0,0,0,1041,0,No
2,4,11,0,0,3,0,0,0,0,0,0,0,850,0,No
2,9,21,0,0,4,0,0,0,0,0,0,0,584,0,No
5,8,9,0,0,4,0,0,0,0,0,0,0,511,0,No
3,16,30,0,1,3,0,0,0,0,0,0,0,1004,0,No
6,3,6,0,0,4,0,0,0,0,0,0,0,490,0,No
2,0,4,0,0,4,0,0,0,0,0,0,0,1064,0,No
2,0,5,0,0,4,0,0,0,0,0,0,0,625,0,No
10,0,21,0,2,6,0,0,0,0,0,0,0,779,0,No
8,6,33,0,0,3,0,0,0,0,0,0,0,407,0,No
13,15,42,385,1,6,213,213,41,41,7,26,39,1000,0,No
7,12,17,12,2,7,6,6,0,0,1,2,3,514,0,Yes
39,19,75,0,2,7,0,0,0,0,0,0,0,406,0,No
5,8,14,1,7,6,0,0,-1,0,1,5,5,994,0,Yes
9,9,31,0,0,4,0,0,0,0,0,0,0,407,0,No
2,6,11,0,0,4,0,0,0,0,0,0,0,419,0,No
15,15,23,0,3,7,0,0,0,0,0,0,0,575,0,No
19,17,88,138,7,8,76,76,14,14,1,5,5,419,0,Yes
3,0,3,0,1,5,0,0,0,0,0,0,0,1064,0,No
4,0,5,0,0,6,0,0,0,0,0,0,0,581,0,No
7,11,13,11,1,7,1,1,-9,0,7,26,39,940,0,No
2,8,22,0,1,5,0,0,0,0,0,0,0,372,0,No
17,4,48,0,2,5,0,0,0,0,0,0,0,1053,0,No
21,4,28,0,1,5,0,0,0,0,0,0,0,1051,0,No
2,4,11,0,0,4,0,0,0,0,0,0,0,860,0,No
2,3,3,43,0,2,23,17,3,4,8,30,44,161,0,No
4,5,19,0,0,7,0,0,0,0,0,0,0,860,0,No
2,9,21,0,1,5,0,0,0,0,0,0,0,594,0,No
6,9,10,0,1,6,0,0,0,0,0,0,0,521,0,No
6,2,6,0,0,7,0,0,0,0,0,0,0,500,0,No
3,2,4,19,1,5,4,4,-11,0,1,8,15,680,0,No
3,1,5,0,1,7,0,0,0,0,0,0,0,538,0,No
2,0,4,0,0,3,0,0,0,0,0,0,0,509,0,No
2,0,4,0,0,3,0,0,0,0,0,0,0,1077,0,No
10,0,21,0,0,4,0,0,0,0,0,0,0,792,0,No
2,5,5,0,0,4,0,0,0,0,0,0,0,932,0,No
6,12,16,0,1,5,0,0,0,0,0,0,0,527,0,No
4,2,6,0,0,5,0,0,0,0,0,0,0,1038,0,No
8,8,16,0,1,5,0,0,0,0,0,0,0,986,0,No
2,6,11,0,1,3,0,0,0,0,0,0,0,432,0,No
7,7,11,0,1,5,0,0,0,0,0,0,0,1038,0,No
8,17,38,0,0,5,0,0,0,0,0,0,0,622,0,No
2,5,7,0,0,3,0,0,0,0,0,0,0,432,0,No
9,7,29,0,0,2,0,0,0,0,0,0,0,420,0,No
4,0,5,0,0,5,0,0,0,0,0,0,0,594,0,No
8,8,12,0,0,4,0,0,0,0,0,0,0,953,0,No
2,6,19,0,0,1,0,0,0,0,0,0,0,385,0,No
22,4,33,0,0,4,0,0,0,0,0,0,0,1064,0,No
2,4,11,0,0,3,0,0,0,0,0,0,0,873,0,No
2,9,21,0,0,4,0,0,0,0,0,0,0,607,0,No
5,8,9,0,0,4,0,0,0,0,0,0,0,534,0,No
3,16,30,0,1,3,0,0,0,0,0,0,0,1027,0,No
6,3,6,0,0,4,0,0,0,0,0,0,0,513,0,No
2,0,4,0,0,4,0,0,0,0,0,0,0,1088,0,No
2,0,5,0,0,4,0,0,0,0,0,0,0,649,0,No
10,0,21,0,2,6,0,0,0,0,0,0,0,803,0,No
8,6,33,0,0,3,0,0,0,0,0,0,0,431,0,No
13,15,42,0,1,6,0,0,0,0,0,0,0,1024,0,No
7,12,17,0,3,7,0,0,0,0,0,0,0,538,0,No
39,19,75,0,2,7,0,0,0,0,0,0,0,430,0,No
5,8,16,4,8,6,2,2,0,0,2,5,5,1018,0,No
9,9,31,0,0,4,0,0,0,0,0,0,0,431,0,Yes
2,6,11,0,0,4,0,0,0,0,0,0,0,443,0,No
15,15,23,0,3,7,0,0,0,0,0,0,0,599,0,No
3,0,3,0,1,5,0,0,0,0,0,0,0,1088,0,No
4,0,5,0,0,6,0,0,0,0,0,0,0,605,0,No
7,11,13,0,2,7,0,0,0,0,0,0,0,964,0,No
2,8,22,0,1,5,0,0,0,0,0,0,0,396,0,No
17,4,48,0,2,5,0,0,0,0,0,0,0,1077,0,No
21,4,28,0,1,5,0,0,0,0,0,0,0,1075,0,No
2,4,11,18,1,5,9,9,0,0,2,3,19,884,0,No
2,3,3,6,1,3,4,4,2,2,2,3,19,185,0,No
4,5,19,33,1,7,19,19,5,5,2,3,19,884,0,No
2,9,21,21,2,6,12,12,3,3,2,3,19,618,0,No
6,9,10,0,1,6,0,0,0,0,0,0,0,545,0,No
6,2,6,0,0,7,0,0,0,0,0,0,0,524,0,No
3,2,4,0,1,5,0,0,0,0,0,0,0,704,0,No
3,1,5,0,1,7,0,0,0,0,0,0,0,562,0,No
2,0,4,0,0,4,0,0,0,0,0,0,0,1131,0,No
2,0,5,4,0,5,2,2,0,0,1,4,18,692,0,No
10,0,21,0,2,6,0,0,0,0,0,0,0,846,0,No
13,16,42,24,2,7,13,4,2,1,8,23,162,1067,0,No
7,12,17,40,3,7,16,4,-8,1,8,24,166,581,0,No
39,19,75,33,2,7,15,9,-3,1,7,22,161,473,0,No
11,17,70,30,3,6,10,5,-10,1,6,19,126,461,0,No
5,8,16,20,8,7,8,6,-4,1,3,9,84,1061,0,No
11,13,33,479,1,5,253,120,27,20,8,19,110,474,0,No
2,5,11,6,0,5,1,1,-4,0,1,4,44,486,0,No
15,15,23,18,3,7,9,2,0,1,8,24,167,642,0,No
20,19,93,69,9,8,30,22,-9,0,4,13,77,486,0,No
6,7,6,84,2,7,63,57,42,39,3,7,52,577,0,No
3,0,3,0,1,5,0,0,0,0,0,0,0,1131,0,No
4,1,5,8,0,7,5,3,2,2,4,13,77,648,0,No
7,11,13,0,2,7,0,0,0,0,0,0,0,1007,0,No
2,8,22,0,1,5,0,0,0,0,0,0,0,439,0,Yes
17,4,48,0,2,5,0,0,0,0,0,0,0,1120,0,No
21,4,28,0,1,5,0,0,0,0,0,0,0,1118,0,No
2,4,11,0,1,5,0,0,0,0,0,0,0,927,0,No
2,3,3,0,1,3,0,0,0,0,0,0,0,228,0,No
4,5,19,0,1,7,0,0,0,0,0,0,0,927,0,No
2,9,21,0,2,6,0,0,0,0,0,0,0,661,0,No
6,9,10,0,1,6,0,0,0,0,0,0,0,588,0,No
6,2,6,0,0,7,0,0,0,0,0,0,0,567,0,No
3,2,4,0,1,5,0,0,0,0,0,0,0,747,0,No
3,1,5,0,1,7,0,0,0,0,0,0,0,605,0,No
2,0,4,0,0,4,0,0,0,0,0,0,0,1162,0,No
2,0,5,0,0,5,0,0,0,0,0,0,0,723,0,No
10,0,21,0,2,6,0,0,0,0,0,0,0,877,0,No
13,16,42,0,2,7,0,0,0,0,0,0,0,1098,0,No
7,12,17,0,3,7,0,0,0,0,0,0,0,612,0,No
39,19,75,0,2,7,0,0,0,0,0,0,0,504,0,No
11,17,70,0,3,6,0,0,0,0,0,0,0,492,0,No
5,8,16,0,8,7,0,0,0,0,0,0,0,1092,0,No
11,13,33,0,1,5,0,0,0,0,0,0,0,505,0,No
2,5,11,0,0,5,0,0,0,0,0,0,0,517,0,No
15,15,23,0,3,7,0,0,0,0,0,0,0,673,0,No
20,19,93,0,9,8,0,0,0,0,0,0,0,517,0,No
6,7,6,0,2,7,0,0,0,0,0,0,0,608,0,No
3,0,3,0,1,5,0,0,0,0,0,0,0,1162,0,No
4,1,5,0,0,7,0,0,0,0,0,0,0,679,0,No
7,11,13,0,2,7,0,0,0,0,0,0,0,1038,0,No
2,7,20,14,2,5,5,5,-4,0,1,3,7,470,0,No
17,4,48,0,2,5,0,0,0,0,0,0,0,1151,0,No
21,4,28,0,1,5,0,0,0,0,0,0,0,1149,0,Yes
2,4,11,0,1,5,0,0,0,0,0,0,0,958,0,Yes
2,3,3,0,1,3,0,0,0,0,0,0,0,259,0,Yes
4,5,19,0,1,7,0,0,0,0,0,0,0,958,0,Yes
2,9,21,0,2,6,0,0,0,0,0,0,0,692,0,Yes
6,9,10,0,1,6,0,0,0,0,0,0,0,619,0,No
6,2,6,0,0,7,0,0,0,0,0,0,0,598,0,No
3,2,4,0,1,5,0,0,0,0,0,0,0,778,0,No
3,1,5,0,1,7,0,0,0,0,0,0,0,636,0,No
2,0,4,0,0,4,0,0,0,0,0,0,0,1239,0,No
2,0,5,0,0,5,0,0,0,0,0,0,0,800,0,No
10,0,21,0,2,6,0,0,0,0,0,0,0,954,0,No
13,16,42,0,2,7,0,0,0,0,0,0,0,1175,0,No
8,12,19,27,3,7,25,25,23,23,2,6,9,689,0,Yes
39,19,75,0,2,7,0,0,0,0,0,0,0,581,0,No
11,17,70,0,3,6,0,0,0,0,0,0,0,569,0,No
5,8,16,0,8,7,0,0,0,0,0,0,0,1169,0,No
13,13,36,39,1,5,38,38,37,37,3,6,9,582,0,No
2,5,11,0,0,5,0,0,0,0,0,0,0,594,0,No
15,15,23,0,3,7,0,0,0,0,0,0,0,750,0,No
20,19,93,0,9,8,0,0,0,0,0,0,0,594,0,No
6,7,6,0,2,7,0,0,0,0,0,0,0,685,0,Yes
3,0,3,0,1,5,0,0,0,0,0,0,0,1239,0,No
4,1,5,0,0,7,0,0,0,0,0,0,0,756,0,No
7,11,13,0,2,7,0,0,0,0,0,0,0,1115,0,No
2,7,20,0,2,5,0,0,0,0,0,0,0,547,0,No
17,4,48,0,2,5,0,0,0,0,0,0,0,1228,0,No
21,5,28,4,2,5,3,3,2,2,2,11,47,1226,0,No
6,9,10,0,1,6,0,0,0,0,0,0,0,696,0,Yes
6,2,6,0,0,7,0,0,0,0,0,0,0,675,0,No
3,2,4,0,1,5,0,0,0,0,0,0,0,855,0,No
3,1,5,0,1,7,0,0,0,0,0,0,0,713,0,No
2,0,4,0,0,4,0,0,0,0,0,0,0,1301,0,No
2,0,5,0,0,5,0,0,0,0,0,0,0,862,0,No
10,0,21,0,2,6,0,0,0,0,0,0,0,1016,0,No
13,16,42,5,2,7,2,2,-1,0,4,22,49,1237,0,Yes
39,19,75,0,2,7,0,0,0,0,0,0,0,643,0,Yes
11,17,70,57,3,6,29,28,1,1,7,31,74,631,0,No
5,8,16,2,8,7,1,1,0,0,4,22,49,1231,0,No
13,10,36,6,1,5,1,1,-4,0,4,22,49,644,0,No
2,5,11,0,0,5,0,0,0,0,0,0,0,656,0,Yes
8,4,18,246,2,2,244,233,242,233,9,54,121,22,0,No
15,15,23,6,3,7,2,2,-2,0,3,9,25,812,0,No
20,19,93,0,9,8,0,0,0,0,0,0,0,656,0,No
6,7,6,2,2,7,0,0,-2,0,4,22,49,747,0,No
3,0,3,0,1,5,0,0,0,0,0,0,0,1301,0,No
4,1,5,0,0,7,0,0,0,0,0,0,0,818,0,No
7,11,13,0,2,7,0,0,0,0,0,0,0,1177,0,No
2,7,20,0,2,5,0,0,0,0,0,0,0,609,0,No
17,4,48,0,2,5,0,0,0,0,0,0,0,1290,0,No
21,5,28,7,2,5,3,3,-1,0,4,22,49,1288,0,No
10,11,25,79,3,8,36,36,-7,0,7,39,92,1226,0,No
6,2,6,0,0,7,0,0,0,0,0,0,0,737,0,No
3,2,4,0,1,5,0,0,0,0,0,0,0,917,0,No
3,1,5,0,1,7,0,0,0,0,0,0,0,775,0,No
2,0,4,0,0,4,0,0,0,0,0,0,0,1387,0,No
2,0,5,0,0,5,0,0,0,0,0,0,0,948,0,No
10,0,21,0,2,6,0,0,0,0,0,0,0,1102,0,No
13,16,42,0,2,7,0,0,0,0,0,0,0,1323,0,Yes
39,19,75,92,4,7,46,24,0,2,3,7,51,729,0,No
11,17,70,0,3,6,0,0,0,0,0,0,0,717,0,No
5,8,18,8,8,7,5,5,2,2,3,14,39,1317,0,No
13,10,36,0,1,5,0,0,0,0,0,0,0,730,0,No
2,5,11,5,1,5,3,2,1,1,5,17,42,742,0,No
13,8,16,91,2,3,66,53,41,48,2,3,3,346,0,No
8,4,18,0,2,2,0,0,0,0,0,0,0,108,0,No
15,15,23,8,3,7,4,4,0,0,3,14,39,898,0,No
20,19,93,0,9,8,0,0,0,0,0,0,0,742,0,No
6,7,6,0,2,7,0,0,0,0,0,0,0,833,0,No
3,0,3,0,1,5,0,0,0,0,0,0,0,1387,0,No
4,1,5,0,0,7,0,0,0,0,0,0,0,904,0,No
7,11,13,0,2,7,0,0,0,0,0,0,0,1263,0,No
2,7,20,0,2,5,0,0,0,0,0,0,0,695,0,No
17,4,48,0,2,5,0,0,0,0,0,0,0,1376,0,No
21,5,28,0,2,5,0,0,0,0,0,0,0,1374,0,No
10,11,25,0,3,8,0,0,0,0,0,0,0,1312,0,No
6,2,6,0,0,7,0,0,0,0,0,0,0,823,0,No
3,2,4,0,1,5,0,0,0,0,0,0,0,1003,0,No
3,1,5,0,1,7,0,0,0,0,0,0,0,861,0,No
2,0,4,0,0,4,0,0,0,0,0,0,0,1435,0,No
2,0,5,0,0,5,0,0,0,0,0,0,0,996,0,No
10,0,21,0,2,6,0,0,0,0,0,0,0,1150,0,No
13,16,42,0,2,7,0,0,0,0,0,0,0,1371,0,Yes
39,19,75,0,4,7,0,0,0,0,0,0,0,777,0,No
11,17,70,0,3,6,0,0,0,0,0,0,0,765,0,Yes
5,8,18,0,8,7,0,0,0,0,0,0,0,1365,0,No
13,10,36,0,1,5,0,0,0,0,0,0,0,778,0,No
2,5,11,0,1,5,0,0,0,0,0,0,0,790,0,No
13,8,16,0,2,3,0,0,0,0,0,0,0,394,0,No
8,4,18,0,2,2,0,0,0,0,0,0,0,156,0,No
15,15,23,0,3,7,0,0,0,0,0,0,0,946,0,No
20,19,93,0,9,8,0,0,0,0,0,0,0,790,0,Yes
6,7,6,0,2,7,0,0,0,0,0,0,0,881,0,Yes
3,0,3,0,1,5,0,0,0,0,0,0,0,1435,0,No
4,1,5,0,0,7,0,0,0,0,0,0,0,952,0,No
7,11,13,0,2,7,0,0,0,0,0,0,0,1311,0,No
2,7,20,0,2,5,0,0,0,0,0,0,0,743,0,No
9,28,43,124,2,8,76,52,28,36,4,11,12,885,0,No
17,4,48,0,2,5,0,0,0,0,0,0,0,1424,0,No
21,5,28,0,2,5,0,0,0,0,0,0,0,1422,0,No
10,11,25,0,3,8,0,0,0,0,0,0,0,1360,0,No
6,2,6,0,0,7,0,0,0,0,0,0,0,871,0,Yes
3,2,4,0,1,5,0,0,0,0,0,0,0,1051,0,No
3,1,5,0,1,7,0,0,0,0,0,0,0,909,0,No
2,0,4,0,0,4,0,0,0,0,0,0,0,1518,0,No
2,0,5,0,0,5,0,0,0,0,0,0,0,1079,0,No
10,0,21,0,2,6,0,0,0,0,0,0,0,1233,0,No
13,16,44,215,2,7,110,107,5,12,7,13,18,1454,0,Yes
39,19,75,0,4,7,0,0,0,0,0,0,0,860,0,No
11,17,70,0,3,6,0,0,0,0,0,0,0,848,0,No
5,8,18,0,8,7,0,0,0,0,0,0,0,1448,0,No
13,10,36,0,1,5,0,0,0,0,0,0,0,861,0,No
2,5,11,0,1,5,0,0,0,0,0,0,0,873,0,No
13,8,16,0,2,3,0,0,0,0,0,0,0,477,0,No
8,4,18,0,2,2,0,0,0,0,0,0,0,239,0,No
15,15,23,0,3,7,0,0,0,0,0,0,0,1029,0,No
20,19,93,0,9,8,0,0,0,0,0,0,0,873,0,No
19,10,39,50,3,3,35,35,20,20,3,4,5,611,0,No
6,7,6,9,3,7,3,3,-3,0,3,4,5,964,0,No
3,0,3,1,1,5,1,1,1,1,1,8,18,1518,0,No
4,1,5,0,0,7,0,0,0,0,0,0,0,1035,0,Yes
7,11,13,2,2,7,1,1,0,0,1,16,36,1394,0,No
2,7,20,0,2,5,0,0,0,0,0,0,0,826,0,No
9,28,43,0,2,8,0,0,0,0,0,0,0,968,0,No
17,4,48,4,2,5,2,2,0,0,1,16,36,1507,0,No
21,5,28,0,2,5,0,0,0,0,0,0,0,1505,0,No
10,11,25,0,3,8,0,0,0,0,0,0,0,1443,0,No
6,2,6,0,0,7,0,0,0,0,0,0,0,954,0,No
3,2,4,0,1,5,0,0,0,0,0,0,0,1134,0,No
3,1,5,0,1,7,0,0,0,0,0,0,0,992,0,No
20,2,27,346,0,6,173,173,0,0,5,19,136,1048,0,No
2,0,4,102,0,4,51,51,0,0,5,19,136,1585,0,No
2,4,5,136,1,4,68,68,0,0,5,19,136,1146,0,No
14,10,52,0,0,5,0,0,0,0,0,0,0,928,0,No
14,17,51,19,6,8,14,14,9,9,1,1,1,1521,0,Yes
39,19,75,0,5,8,0,0,0,0,0,0,0,927,0,No
12,17,73,0,4,7,0,0,0,0,0,0,0,915,0,No
5,9,18,0,8,8,0,0,0,0,0,0,0,1515,0,No
13,12,39,0,1,6,0,0,0,0,0,0,0,928,0,No
10,10,12,0,4,8,0,0,0,0,0,0,0,1045,0,No
10,23,56,0,3,7,0,0,0,0,0,0,0,1130,0,No
8,4,19,0,2,2,0,0,0,0,0,0,0,306,0,No
20,13,40,0,5,4,0,0,0,0,0,0,0,678,0,No
6,7,6,0,3,7,0,0,0,0,0,0,0,1031,0,No
22,1,68,0,1,3,0,0,0,0,0,0,0,626,0,No
8,16,17,0,1,7,0,0,0,0,0,0,0,940,0,No
5,0,5,0,1,5,0,0,0,0,0,0,0,1585,0,No
4,1,5,5,1,8,2,2,-1,0,1,1,8,1102,0,No
7,11,13,0,2,7,0,0,0,0,0,0,0,1461,0,No
2,9,23,0,3,5,0,0,0,0,0,0,0,893,0,No
27,6,34,0,2,5,0,0,0,0,0,0,0,1572,0,No
9,10,54,0,1,9,0,0,0,0,0,0,0,1329,0,No
1,8,7,0,3,6,0,0,0,0,0,0,0,1115,0,No
3,9,19,0,0,2,0,0,0,0,0,0,0,82,0,No
11,1,11,0,0,2,0,0,0,0,0,0,0,243,0,No
11,2,11,0,0,8,0,0,0,0,0,0,0,1021,0,No
7,26,50,0,0,2,0,0,0,0,0,0,0,73,0,Yes
1,0,9,6,0,2,3,3,0,0,1,1,1,67,0,No
2,0,6,6,0,2,3,3,0,0,1,1,1,67,0,No
3,2,4,0,1,5,0,0,0,0,0,0,0,1201,0,No
3,1,8,0,0,1,0,0,0,0,0,0,0,297,0,No
3,2,6,0,1,7,0,0,0,0,0,0,0,1059,0,No
4,1,7,115,1,1,73,40,31,36,10,41,67,68,0,No
3,3,3,27,1,1,14,5,1,3,5,22,36,68,0,No
2,0,2,0,0,1,0,0,0,0,0,0,0,68,0,No
5,0,14,121,0,1,79,38,37,28,6,23,40,68,0,No
2,2,4,0,0,1,0,0,0,0,0,0,0,68,0,No
20,2,27,0,0,6,0,0,0,0,0,0,0,1073,0,No
2,0,4,0,0,4,0,0,0,0,0,0,0,1610,0,No
2,4,5,0,1,4,0,0,0,0,0,0,0,1171,0,No
14,10,52,0,0,5,0,0,0,0,0,0,0,953,0,No
14,17,51,0,6,8,0,0,0,0,0,0,0,1546,0,Yes
17,10,19,172,7,8,144,72,116,58,9,22,63,1570,0,No
39,19,75,0,5,8,0,0,0,0,0,0,0,952,0,No
12,17,73,0,4,7,0,0,0,0,0,0,0,940,0,Yes
5,9,18,0,8,8,0,0,0,0,0,0,0,1540,0,Yes
13,11,37,14,1,6,5,5,-4,0,4,10,21,953,0,No
10,10,12,0,4,8,0,0,0,0,0,0,0,1070,0,No
10,23,56,0,3,7,0,0,0,0,0,0,0,1155,0,Yes
8,4,19,0,2,2,0,0,0,0,0,0,0,331,0,No
20,13,40,0,5,4,0,0,0,0,0,0,0,703,0,No
6,7,6,0,3,7,0,0,0,0,0,0,0,1056,0,No
22,1,68,0,1,3,0,0,0,0,0,0,0,651,0,No
8,16,17,0,1,7,0,0,0,0,0,0,0,965,0,No
9,5,15,22,0,2,22,22,22,22,4,10,35,330,0,No
5,0,5,0,1,5,0,0,0,0,0,0,0,1610,0,No
4,1,5,0,1,8,0,0,0,0,0,0,0,1127,0,No
7,11,13,0,2,7,0,0,0,0,0,0,0,1486,0,No
2,9,23,0,3,5,0,0,0,0,0,0,0,918,0,No
27,6,34,0,2,5,0,0,0,0,0,0,0,1597,0,No
9,10,54,0,1,9,0,0,0,0,0,0,0,1354,0,No
1,8,7,0,3,6,0,0,0,0,0,0,0,1140,0,No
3,9,19,0,0,2,0,0,0,0,0,0,0,107,0,No
11,1,11,0,0,2,0,0,0,0,0,0,0,268,0,No
11,2,11,0,0,8,0,0,0,0,0,0,0,1046,0,No
7,26,50,0,0,2,0,0,0,0,0,0,0,98,0,Yes
7,4,22,18,1,4,18,18,18,18,3,26,61,759,0,No
1,0,9,0,0,2,0,0,0,0,0,0,0,92,0,No
2,0,6,0,0,2,0,0,0,0,0,0,0,92,0,No
3,2,4,0,1,5,0,0,0,0,0,0,0,1226,0,No
3,1,8,0,0,1,0,0,0,0,0,0,0,322,0,No
3,2,6,0,1,7,0,0,0,0,0,0,0,1084,0,No
4,1,7,0,1,1,0,0,0,0,0,0,0,93,0,No
3,3,3,0,1,1,0,0,0,0,0,0,0,93,0,No
2,0,2,0,0,1,0,0,0,0,0,0,0,93,0,No
2,2,4,0,0,1,0,0,0,0,0,0,0,93,0,No
20,2,27,0,0,6,0,0,0,0,0,0,0,1118,0,No
2,0,4,0,0,4,0,0,0,0,0,0,0,1655,0,No
2,4,5,0,1,4,0,0,0,0,0,0,0,1216,0,No
14,10,52,0,0,5,0,0,0,0,0,0,0,998,0,No
17,10,19,3,7,8,1,1,-1,0,3,11,23,1615,0,No
39,19,75,4,5,8,2,2,0,0,1,7,31,997,0,No
12,17,73,3,5,7,2,2,1,1,1,2,2,985,0,No
5,9,18,11,9,8,7,6,3,3,4,12,38,1585,0,No
13,12,37,13,1,6,7,7,1,1,1,6,31,998,0,No
10,10,12,10,4,8,4,4,-2,0,3,9,34,1115,0,No
20,13,40,0,5,4,0,0,0,0,0,0,0,748,0,No
22,1,68,0,1,3,0,0,0,0,0,0,0,696,0,No
8,16,17,0,1,7,0,0,0,0,0,0,0,1010,0,No
9,5,15,0,0,2,0,0,0,0,0,0,0,375,0,No
5,0,5,0,1,5,0,0,0,0,0,0,0,1655,0,No
4,1,5,0,1,8,0,0,0,0,0,0,0,1172,0,No
7,11,13,0,2,7,0,0,0,0,0,0,0,1531,0,No
2,9,23,0,3,5,0,0,0,0,0,0,0,963,0,No
27,6,34,0,2,5,0,0,0,0,0,0,0,1642,0,No
9,10,54,0,1,9,0,0,0,0,0,0,0,1399,0,No
1,8,7,0,3,6,0,0,0,0,0,0,0,1185,0,No
3,9,19,0,0,2,0,0,0,0,0,0,0,152,0,No
19,27,55,27,8,10,24,24,21,21,3,5,5,1584,0,No
11,1,11,0,0,2,0,0,0,0,0,0,0,313,0,No
11,2,11,0,0,8,0,0,0,0,0,0,0,1091,0,No
7,4,22,0,1,4,0,0,0,0,0,0,0,804,0,No
1,0,9,0,0,2,0,0,0,0,0,0,0,137,0,No
2,0,6,0,0,2,0,0,0,0,0,0,0,137,0,No
3,2,4,0,1,5,0,0,0,0,0,0,0,1271,0,No
3,1,8,0,0,1,0,0,0,0,0,0,0,367,0,No
3,2,6,0,1,7,0,0,0,0,0,0,0,1129,0,No
4,1,7,0,1,1,0,0,0,0,0,0,0,138,0,No
3,3,3,0,1,1,0,0,0,0,0,0,0,138,0,No
2,0,2,0,0,1,0,0,0,0,0,0,0,138,0,No
2,2,4,0,0,1,0,0,0,0,0,0,0,138,0,No
20,2,27,0,0,6,0,0,0,0,0,0,0,1192,0,No
2,0,4,0,0,4,0,0,0,0,0,0,0,1729,0,No
2,4,5,0,1,4,0,0,0,0,0,0,0,1290,0,No
14,10,52,0,0,5,0,0,0,0,0,0,0,1072,0,No
17,10,19,0,7,8,0,0,0,0,0,0,0,1689,0,No
39,19,75,0,5,8,0,0,0,0,0,0,0,1071,0,No
12,17,73,0,5,7,0,0,0,0,0,0,0,1059,0,No
5,9,18,0,9,8,0,0,0,0,0,0,0,1659,0,No
13,12,37,0,1,6,0,0,0,0,0,0,0,1072,0,No
10,10,12,0,4,8,0,0,0,0,0,0,0,1189,0,No
20,13,40,0,5,4,0,0,0,0,0,0,0,822,0,No
22,1,68,0,1,3,0,0,0,0,0,0,0,770,0,No
8,16,17,0,1,7,0,0,0,0,0,0,0,1084,0,No
9,5,15,0,0,2,0,0,0,0,0,0,0,449,0,No
5,0,5,0,1,5,0,0,0,0,0,0,0,1729,0,No
4,1,5,0,1,8,0,0,0,0,0,0,0,1246,0,No
7,11,13,0,2,7,0,0,0,0,0,0,0,1605,0,No
2,9,23,0,3,5,0,0,0,0,0,0,0,1037,0,No
27,6,34,0,2,5,0,0,0,0,0,0,0,1716,0,No
9,10,54,0,1,9,0,0,0,0,0,0,0,1473,0,No
1,8,7,0,3,6,0,0,0,0,0,0,0,1259,0,No
3,9,19,0,0,2,0,0,0,0,0,0,0,226,0,No
19,27,55,3,8,10,1,1,-1,0,1,6,7,1658,0,No
11,1,11,0,0,2,0,0,0,0,0,0,0,387,0,No
11,2,11,0,0,8,0,0,0,0,0,0,0,1165,0,No
7,4,22,0,1,4,0,0,0,0,0,0,0,878,0,No
1,0,9,0,0,2,0,0,0,0,0,0,0,211,0,No
2,0,6,0,0,2,0,0,0,0,0,0,0,211,0,No
3,2,4,0,1,5,0,0,0,0,0,0,0,1345,0,No
3,1,8,0,0,1,0,0,0,0,0,0,0,441,0,No
3,2,6,0,1,7,0,0,0,0,0,0,0,1203,0,No
4,1,7,0,1,1,0,0,0,0,0,0,0,212,0,No
3,3,3,0,1,1,0,0,0,0,0,0,0,212,0,No
2,0,2,0,0,1,0,0,0,0,0,0,0,212,0,No
2,2,4,0,0,1,0,0,0,0,0,0,0,212,0,No
20,2,27,0,0,6,0,0,0,0,0,0,0,1241,0,No
2,0,4,0,0,4,0,0,0,0,0,0,0,1778,0,No
2,4,5,0,1,4,0,0,0,0,0,0,0,1339,0,No
14,10,52,0,0,5,0,0,0,0,0,0,0,1121,0,No
17,10,19,0,7,8,0,0,0,0,0,0,0,1738,0,No
39,19,75,0,5,8,0,0,0,0,0,0,0,1120,0,No
12,17,73,0,5,7,0,0,0,0,0,0,0,1108,0,No
5,9,18,0,9,8,0,0,0,0,0,0,0,1708,0,No
13,12,37,0,1,6,0,0,0,0,0,0,0,1121,0,No
10,10,12,0,4,8,0,0,0,0,0,0,0,1238,0,No
20,13,40,0,5,4,0,0,0,0,0,0,0,871,0,No
22,1,68,0,1,3,0,0,0,0,0,0,0,819,0,No
8,16,17,0,1,7,0,0,0,0,0,0,0,1133,0,No
9,5,15,0,0,2,0,0,0,0,0,0,0,498,0,No
5,0,5,0,1,5,0,0,0,0,0,0,0,1778,0,No
4,1,5,0,1,8,0,0,0,0,0,0,0,1295,0,No
7,11,13,0,2,7,0,0,0,0,0,0,0,1654,0,No
2,9,23,0,3,5,0,0,0,0,0,0,0,1086,0,No
27,6,34,0,2,5,0,0,0,0,0,0,0,1765,0,No
9,10,54,0,1,9,0,0,0,0,0,0,0,1522,0,No
1,8,7,0,3,6,0,0,0,0,0,0,0,1308,0,No
3,9,19,0,0,2,0,0,0,0,0,0,0,275,0,No
19,27,55,0,8,10,0,0,0,0,0,0,0,1707,0,No
11,1,11,0,0,2,0,0,0,0,0,0,0,436,0,No
11,2,11,0,0,8,0,0,0,0,0,0,0,1214,0,No
7,4,22,0,1,4,0,0,0,0,0,0,0,927,0,No
1,0,9,0,0,2,0,0,0,0,0,0,0,260,0,No
2,0,6,0,0,2,0,0,0,0,0,0,0,260,0,No
3,2,4,0,1,5,0,0,0,0,0,0,0,1394,0,No
3,1,8,0,0,1,0,0,0,0,0,0,0,490,0,No
3,2,6,0,1,7,0,0,0,0,0,0,0,1252,0,No
4,1,7,0,1,1,0,0,0,0,0,0,0,261,0,No
3,3,3,0,1,1,0,0,0,0,0,0,0,261,0,No
2,0,2,0,0,1,0,0,0,0,0,0,0,261,0,No
2,2,4,0,0,1,0,0,0,0,0,0,0,261,0,No
20,2,27,0,0,6,0,0,0,0,0,0,0,1287,0,No
2,0,4,0,0,4,0,0,0,0,0,0,0,1824,0,No
2,4,5,0,1,4,0,0,0,0,0,0,0,1385,0,No
14,10,52,0,0,5,0,0,0,0,0,0,0,1167,0,No
17,10,19,0,7,8,0,0,0,0,0,0,0,1784,0,Yes
39,19,75,0,5,8,0,0,0,0,0,0,0,1166,0,No
12,17,73,0,5,7,0,0,0,0,0,0,0,1154,0,No
5,9,18,0,9,8,0,0,0,0,0,0,0,1754,0,No
13,12,37,0,1,6,0,0,0,0,0,0,0,1167,0,No
10,10,12,0,4,8,0,0,0,0,0,0,0,1284,0,No
20,13,40,0,5,4,0,0,0,0,0,0,0,917,0,No
22,1,68,0,1,3,0,0,0,0,0,0,0,865,0,No
8,16,17,0,1,7,0,0,0,0,0,0,0,1179,0,No
9,5,15,0,0,2,0,0,0,0,0,0,0,544,0,No
5,0,5,0,1,5,0,0,0,0,0,0,0,1824,0,No
4,1,5,0,1,8,0,0,0,0,0,0,0,1341,0,No
7,11,13,0,2,7,0,0,0,0,0,0,0,1700,0,No
2,9,23,0,3,5,0,0,0,0,0,0,0,1132,0,No
27,6,34,0,2,5,0,0,0,0,0,0,0,1811,0,No
9,10,54,0,1,9,0,0,0,0,0,0,0,1568,0,No
1,8,7,0,3,6,0,0,0,0,0,0,0,1354,0,No
3,9,19,0,0,2,0,0,0,0,0,0,0,321,0,No
19,26,55,2,8,10,0,0,-2,0,2,7,17,1753,0,No
11,1,11,0,0,2,0,0,0,0,0,0,0,482,0,No
11,2,11,0,0,8,0,0,0,0,0,0,0,1260,0,No
14,22,66,36,1,4,22,19,8,5,3,8,19,312,0,No
7,4,22,0,1,4,0,0,0,0,0,0,0,973,0,No
1,0,9,0,0,2,0,0,0,0,0,0,0,306,0,No
2,0,6,0,0,2,0,0,0,0,0,0,0,306,0,No
3,2,4,0,1,5,0,0,0,0,0,0,0,1440,0,No
3,1,8,0,0,1,0,0,0,0,0,0,0,536,0,No
3,2,6,0,1,7,0,0,0,0,0,0,0,1298,0,No
4,1,7,0,1,1,0,0,0,0,0,0,0,307,0,No
3,3,3,0,1,1,0,0,0,0,0,0,0,307,0,No
2,0,2,0,0,1,0,0,0,0,0,0,0,307,0,No
2,2,4,0,0,1,0,0,0,0,0,0,0,307,0,No
20,2,27,0,0,6,0,0,0,0,0,0,0,1371,0,No
2,0,4,0,0,4,0,0,0,0,0,0,0,1908,0,No
2,4,5,0,1,4,0,0,0,0,0,0,0,1469,0,No
14,10,52,0,0,5,0,0,0,0,0,0,0,1251,0,No
17,10,19,2,8,8,1,1,0,0,1,1,1,1868,0,No
39,19,75,0,5,8,0,0,0,0,0,0,0,1250,0,No
12,17,73,0,5,7,0,0,0,0,0,0,0,1238,0,No
5,9,18,0,9,8,0,0,0,0,0,0,0,1838,0,No
13,12,37,0,1,6,0,0,0,0,0,0,0,1251,0,No
10,10,12,0,4,8,0,0,0,0,0,0,0,1368,0,No
20,13,40,0,5,4,0,0,0,0,0,0,0,1001,0,No
9,2,13,132,0,1,131,105,130,105,3,9,16,59,0,No
22,1,68,0,1,3,0,0,0,0,0,0,0,949,0,No
8,16,17,0,1,7,0,0,0,0,0,0,0,1263,0,No
3,0,3,12,0,4,7,7,2,2,2,7,14,1469,0,No
9,5,15,0,0,2,0,0,0,0,0,0,0,628,0,No
5,0,5,0,1,5,0,0,0,0,0,0,0,1908,0,No
4,1,5,0,1,8,0,0,0,0,0,0,0,1425,0,No
7,11,13,0,2,7,0,0,0,0,0,0,0,1784,0,No
2,9,23,0,3,5,0,0,0,0,0,0,0,1216,0,No
27,6,34,0,2,5,0,0,0,0,0,0,0,1895,0,No
9,10,54,0,1,9,0,0,0,0,0,0,0,1652,0,No
1,8,7,0,3,6,0,0,0,0,0,0,0,1438,0,No
3,9,19,0,0,2,0,0,0,0,0,0,0,405,0,No
19,26,55,22,8,10,12,12,2,2,3,15,23,1837,0,No
11,1,11,0,0,2,0,0,0,0,0,0,0,566,0,No
11,2,11,0,0,8,0,0,0,0,0,0,0,1344,0,No
14,22,66,0,1,4,0,0,0,0,0,0,0,396,0,No
7,4,22,0,1,4,0,0,0,0,0,0,0,1057,0,No
1,0,9,0,0,2,0,0,0,0,0,0,0,390,0,No
2,0,6,0,0,2,0,0,0,0,0,0,0,390,0,No
3,2,4,0,1,5,0,0,0,0,0,0,0,1524,0,No
3,1,8,0,0,1,0,0,0,0,0,0,0,620,0,No
3,2,6,0,1,7,0,0,0,0,0,0,0,1382,0,No
4,1,7,0,1,1,0,0,0,0,0,0,0,391,0,No
3,3,3,0,1,1,0,0,0,0,0,0,0,391,0,No
2,0,2,0,0,1,0,0,0,0,0,0,0,391,0,No
2,2,4,0,0,1,0,0,0,0,0,0,0,391,0,No
4,0,16,374,0,6,273,106,172,87,73,530,2792,783,0,No
10,17,69,486,0,1,417,348,348,348,17,161,1304,152,0,No
1,3,3,882,0,3,489,252,96,250,56,423,3074,783,0,No
10,13,21,432,0,4,323,89,214,76,48,387,2755,544,0,No
13,16,22,984,0,4,624,368,264,368,63,490,3054,339,0,No
10,17,74,712,0,2,559,361,406,361,22,171,1258,156,0,No
4,0,16,0,0,6,0,0,0,0,0,0,0,806,0,No
10,17,69,0,0,1,0,0,0,0,0,0,0,175,0,No
1,3,3,0,0,3,0,0,0,0,0,0,0,806,0,No
10,13,21,0,0,4,0,0,0,0,0,0,0,567,0,No
13,16,22,0,0,4,0,0,0,0,0,0,0,362,0,No
10,17,74,0,0,2,0,0,0,0,0,0,0,179,0,Yes
4,0,16,0,0,6,0,0,0,0,0,0,0,838,0,No
10,17,69,6,0,2,3,2,0,0,4,16,55,207,0,No
10,13,21,0,0,4,0,0,0,0,0,0,0,599,0,No
13,16,22,0,0,4,0,0,0,0,0,0,0,394,0,Yes
10,17,74,17,1,3,8,6,-1,0,4,15,31,211,0,Yes
4,0,16,0,0,6,0,0,0,0,0,0,0,840,0,No
10,17,69,0,0,2,0,0,0,0,0,0,0,209,0,No
10,13,21,0,0,4,0,0,0,0,0,0,0,601,0,No
13,16,22,0,0,4,0,0,0,0,0,0,0,396,0,Yes
10,17,74,0,1,3,0,0,0,0,0,0,0,213,0,Yes
4,0,16,0,0,6,0,0,0,0,0,0,0,909,0,No
10,17,69,0,0,2,0,0,0,0,0,0,0,278,0,Yes
10,13,21,0,0,4,0,0,0,0,0,0,0,670,0,No
13,16,22,0,0,4,0,0,0,0,0,0,0,465,0,Yes
10,17,72,8,2,3,4,4,0,0,1,1,1,282,0,Yes
4,0,16,0,0,6,0,0,0,0,0,0,0,953,0,No
10,17,69,24,0,2,12,12,0,0,1,2,3,322,0,Yes
10,13,21,0,0,4,0,0,0,0,0,0,0,714,0,No
13,16,22,0,0,4,0,0,0,0,0,0,0,509,0,Yes
10,18,76,31,4,4,20,11,9,6,2,3,3,326,0,Yes
4,0,16,0,0,6,0,0,0,0,0,0,0,988,0,No
10,17,69,65,0,2,35,35,5,5,1,9,92,357,0,No
15,16,23,53,0,5,26,26,-1,0,1,9,92,538,0,No
17,16,80,8,0,6,7,7,6,6,3,7,15,771,0,No
10,13,21,0,0,4,0,0,0,0,0,0,0,749,0,Yes
13,16,22,0,0,4,0,0,0,0,0,0,0,544,0,Yes
4,0,16,0,0,6,0,0,0,0,0,0,0,1015,0,No
10,17,69,0,0,2,0,0,0,0,0,0,0,384,0,No
15,16,23,0,0,5,0,0,0,0,0,0,0,565,0,No
25,21,47,35,3,5,30,30,25,25,1,3,3,507,0,No
17,16,80,0,0,6,0,0,0,0,0,0,0,798,0,Yes
10,13,21,0,0,4,0,0,0,0,0,0,0,776,0,No
13,16,22,0,0,4,0,0,0,0,0,0,0,571,0,Yes
3,4,16,0,1,3,0,0,0,0,0,0,0,72,0,No
4,4,7,0,1,5,0,0,0,0,0,0,0,919,0,No
10,7,18,0,3,6,0,0,0,0,0,0,0,973,0,No
7,9,11,0,3,7,0,0,0,0,0,0,0,1025,0,No
14,2,28,0,0,3,0,0,0,0,0,0,0,105,0,No
19,26,53,0,4,9,0,0,0,0,0,0,0,1002,0,No
12,22,33,59,2,9,17,17,-25,0,7,26,39,1004,0,No
10,14,21,0,1,6,0,0,0,0,0,0,0,786,0,No
4,0,8,0,0,2,0,0,0,0,0,0,0,99,0,No
4,0,16,0,0,6,0,0,0,0,0,0,0,1038,0,No
10,17,69,0,0,2,0,0,0,0,0,0,0,407,0,No
15,16,23,0,0,5,0,0,0,0,0,0,0,588,0,No
25,21,47,0,3,5,0,0,0,0,0,0,0,530,0,No
10,13,21,0,0,4,0,0,0,0,0,0,0,799,0,No
13,16,22,0,0,4,0,0,0,0,0,0,0,594,0,Yes
3,4,16,0,1,3,0,0,0,0,0,0,0,96,0,No
4,4,7,0,1,5,0,0,0,0,0,0,0,943,0,No
10,7,18,3,3,7,2,2,1,1,1,2,4,997,0,No
7,9,11,0,3,7,0,0,0,0,0,0,0,1049,0,No
20,18,93,156,9,8,84,80,12,12,8,21,24,443,0,No
14,2,28,0,0,3,0,0,0,0,0,0,0,129,0,No
13,22,36,44,2,9,37,37,30,30,4,13,15,1028,0,No
10,14,21,0,1,6,0,0,0,0,0,0,0,810,0,No
4,0,8,0,0,2,0,0,0,0,0,0,0,123,0,No
3,4,16,0,1,3,0,0,0,0,0,0,0,139,0,No
4,4,7,6,1,6,3,3,0,0,1,4,44,986,0,No
10,8,18,9,3,7,5,2,1,1,4,11,90,1040,0,No
7,10,11,7,3,7,4,2,1,1,4,11,89,1092,0,No
14,3,28,23,0,3,12,6,1,1,4,13,77,172,0,No
13,22,36,0,2,9,0,0,0,0,0,0,0,1071,0,No
10,14,21,0,1,6,0,0,0,0,0,0,0,853,0,No
4,0,8,0,0,2,0,0,0,0,0,0,0,166,0,No
3,4,16,0,1,3,0,0,0,0,0,0,0,170,0,No
4,4,7,0,1,6,0,0,0,0,0,0,0,1017,0,No
10,8,18,0,3,7,0,0,0,0,0,0,0,1071,0,No
7,10,11,0,3,7,0,0,0,0,0,0,0,1123,0,No
14,3,28,0,0,3,0,0,0,0,0,0,0,203,0,No
16,1,20,22,0,3,14,14,6,6,1,6,10,206,0,No
6,17,36,152,2,5,57,57,-38,0,2,3,9,723,0,Yes
13,22,36,0,2,9,0,0,0,0,0,0,0,1102,0,No
10,14,21,0,1,6,0,0,0,0,0,0,0,884,0,No
4,0,8,0,0,2,0,0,0,0,0,0,0,197,0,No
3,4,16,0,1,3,0,0,0,0,0,0,0,247,0,No
4,4,7,0,1,6,0,0,0,0,0,0,0,1094,0,No
10,8,18,0,3,7,0,0,0,0,0,0,0,1148,0,No
7,10,11,0,3,7,0,0,0,0,0,0,0,1200,0,No
14,3,28,0,0,3,0,0,0,0,0,0,0,280,0,No
16,1,20,0,0,3,0,0,0,0,0,0,0,283,0,No
6,17,36,0,2,5,0,0,0,0,0,0,0,800,0,Yes
13,22,36,0,2,9,0,0,0,0,0,0,0,1179,0,Yes
10,14,21,0,1,6,0,0,0,0,0,0,0,961,0,Yes
4,0,8,0,0,2,0,0,0,0,0,0,0,274,0,No
3,4,16,0,1,3,0,0,0,0,0,0,0,309,0,No
4,4,7,0,1,6,0,0,0,0,0,0,0,1156,0,No
10,8,18,0,3,7,0,0,0,0,0,0,0,1210,0,Yes
7,10,11,0,3,7,0,0,0,0,0,0,0,1262,0,Yes
9,15,10,133,2,6,120,120,107,107,1,6,11,747,0,No
14,3,28,0,0,3,0,0,0,0,0,0,0,342,0,No
16,1,20,0,0,3,0,0,0,0,0,0,0,345,0,No
7,14,42,79,2,5,59,44,39,43,8,30,62,862,0,Yes
1,3,5,146,2,2,127,106,108,106,11,58,119,22,0,No
12,19,34,136,2,7,117,116,98,97,5,31,68,1023,0,No
7,5,18,61,2,7,34,33,7,9,7,39,92,758,0,No
4,0,8,0,0,2,0,0,0,0,0,0,0,336,0,No
3,4,16,0,1,3,0,0,0,0,0,0,0,395,0,No
4,4,7,0,1,6,0,0,0,0,0,0,0,1242,0,No
10,8,18,8,5,7,4,3,0,2,3,7,51,1296,0,No
7,10,11,138,5,7,69,36,0,3,3,7,51,1348,0,No
9,15,10,0,2,6,0,0,0,0,0,0,0,833,0,No
14,3,28,0,0,3,0,0,0,0,0,0,0,428,0,No
16,1,20,0,0,3,0,0,0,0,0,0,0,431,0,No
7,14,42,0,2,5,0,0,0,0,0,0,0,948,0,No
1,3,5,0,2,2,0,0,0,0,0,0,0,108,0,No
12,19,34,0,2,7,0,0,0,0,0,0,0,1109,0,No
7,5,18,0,2,7,0,0,0,0,0,0,0,844,0,No
4,0,8,0,0,2,0,0,0,0,0,0,0,422,0,No
3,4,16,0,1,3,0,0,0,0,0,0,0,443,0,No
4,4,7,0,1,6,0,0,0,0,0,0,0,1290,0,No
10,8,18,0,5,7,0,0,0,0,0,0,0,1344,0,No
7,10,11,0,5,7,0,0,0,0,0,0,0,1396,0,No
9,15,10,0,2,6,0,0,0,0,0,0,0,881,0,No
14,3,28,0,0,3,0,0,0,0,0,0,0,476,0,No
16,1,20,0,0,3,0,0,0,0,0,0,0,479,0,No
7,14,42,0,2,5,0,0,0,0,0,0,0,996,0,No
1,3,5,0,2,2,0,0,0,0,0,0,0,156,0,No
12,19,34,0,2,7,0,0,0,0,0,0,0,1157,0,No
7,5,18,0,2,7,0,0,0,0,0,0,0,892,0,No
4,0,8,0,0,2,0,0,0,0,0,0,0,470,0,No
3,4,16,0,1,3,0,0,0,0,0,0,0,526,0,No
4,4,7,0,1,6,0,0,0,0,0,0,0,1373,0,No
10,8,18,0,5,7,0,0,0,0,0,0,0,1427,0,No
7,10,11,0,5,7,0,0,0,0,0,0,0,1479,0,No
9,15,10,0,2,6,0,0,0,0,0,0,0,964,0,No
14,3,28,0,0,3,0,0,0,0,0,0,0,559,0,No
16,1,20,0,0,3,0,0,0,0,0,0,0,562,0,No
7,14,42,0,2,5,0,0,0,0,0,0,0,1079,0,No
1,3,5,0,2,2,0,0,0,0,0,0,0,239,0,No
12,19,34,0,2,7,0,0,0,0,0,0,0,1240,0,No
7,5,18,0,2,7,0,0,0,0,0,0,0,975,0,No
4,0,8,0,0,2,0,0,0,0,0,0,0,553,0,No
3,4,17,252,1,3,126,126,0,0,5,19,136,593,0,No
4,0,23,0,0,1,0,0,0,0,0,0,0,408,0,No
13,15,37,0,8,8,0,0,0,0,0,0,0,1035,0,No
7,9,10,0,6,8,0,0,0,0,0,0,0,1546,0,No
9,14,10,0,2,7,0,0,0,0,0,0,0,1031,0,No
8,5,16,0,0,2,0,0,0,0,0,0,0,80,0,No
16,1,20,0,0,3,0,0,0,0,0,0,0,629,0,No
4,0,8,132,0,2,130,128,128,128,8,16,26,26,0,No
7,16,42,0,3,5,0,0,0,0,0,0,0,1146,0,Yes
1,3,5,0,2,2,0,0,0,0,0,0,0,306,0,No
12,20,37,0,2,7,0,0,0,0,0,0,0,1307,0,No
6,5,17,0,2,7,0,0,0,0,0,0,0,1042,0,No
3,17,16,4,0,2,1,1,-2,0,2,8,19,243,0,No
5,4,58,0,3,7,0,0,0,0,0,0,0,969,0,Yes
3,4,17,0,1,3,0,0,0,0,0,0,0,618,0,No
4,0,23,0,0,1,0,0,0,0,0,0,0,433,0,No
7,9,10,0,6,8,0,0,0,0,0,0,0,1571,0,No
9,14,10,0,2,7,0,0,0,0,0,0,0,1056,0,Yes
8,5,16,0,0,2,0,0,0,0,0,0,0,105,0,No
16,1,20,0,0,3,0,0,0,0,0,0,0,654,0,No
4,0,8,0,0,2,0,0,0,0,0,0,0,51,0,No
7,16,42,0,3,5,0,0,0,0,0,0,0,1171,0,Yes
1,3,5,0,2,2,0,0,0,0,0,0,0,331,0,No
12,20,37,0,2,7,0,0,0,0,0,0,0,1332,0,No
6,5,18,15,2,8,6,5,-3,0,4,27,69,1067,0,No
17,32,72,131,12,11,68,67,5,5,7,36,82,1560,0,Yes
3,17,16,0,0,2,0,0,0,0,0,0,0,268,0,Yes
5,4,58,0,3,7,0,0,0,0,0,0,0,994,0,Yes
7,0,16,31,0,2,31,31,31,31,1,4,11,93,0,No
3,4,17,0,1,3,0,0,0,0,0,0,0,663,0,No
4,0,23,0,0,1,0,0,0,0,0,0,0,478,0,No
13,15,37,8,9,8,2,2,-4,0,2,13,47,1105,0,Yes
5,6,7,12,1,2,9,7,6,5,2,7,32,55,0,No
7,9,10,2,6,8,1,1,0,0,1,7,31,1616,0,No
6,8,6,16,3,7,8,7,0,0,2,13,62,1101,0,No
7,7,7,10,1,5,4,3,-2,0,2,13,47,1101,0,No
8,5,16,0,0,2,0,0,0,0,0,0,0,150,0,No
16,1,20,0,0,3,0,0,0,0,0,0,0,699,0,No
4,0,8,0,0,2,0,0,0,0,0,0,0,96,0,No
7,16,42,5,4,5,3,3,1,1,1,1,2,1216,0,No
1,3,5,0,2,2,0,0,0,0,0,0,0,376,0,No
12,20,37,0,2,7,0,0,0,0,0,0,0,1377,0,No
6,5,18,0,2,8,0,0,0,0,0,0,0,1112,0,No
10,24,39,33,4,8,25,15,17,13,5,7,10,1593,0,Yes
17,32,72,0,12,11,0,0,0,0,0,0,0,1605,0,Yes
7,26,52,25,1,3,17,17,9,9,1,2,2,143,0,No
3,17,16,15,1,3,6,4,-3,0,2,3,6,313,0,No
5,4,58,0,3,7,0,0,0,0,0,0,0,1039,0,Yes
7,0,16,0,0,2,0,0,0,0,0,0,0,138,0,Yes
3,4,17,0,1,3,0,0,0,0,0,0,0,737,0,No
4,0,23,0,0,1,0,0,0,0,0,0,0,552,0,No
13,15,37,0,9,8,0,0,0,0,0,0,0,1179,0,Yes
5,6,7,0,1,2,0,0,0,0,0,0,0,129,0,No
7,9,10,0,6,8,0,0,0,0,0,0,0,1690,0,No
6,8,6,0,3,7,0,0,0,0,0,0,0,1175,0,No
7,7,7,0,1,5,0,0,0,0,0,0,0,1175,0,No
8,5,16,0,0,2,0,0,0,0,0,0,0,224,0,No
16,1,20,0,0,3,0,0,0,0,0,0,0,773,0,No
4,0,8,0,0,2,0,0,0,0,0,0,0,170,0,No
7,16,42,0,4,5,0,0,0,0,0,0,0,1290,0,No
1,3,5,0,2,2,0,0,0,0,0,0,0,450,0,No
12,20,37,6,3,7,6,6,6,6,1,1,1,1451,0,No
6,5,18,0,2,8,0,0,0,0,0,0,0,1186,0,No
10,23,38,21,5,8,4,2,-13,0,5,11,17,1667,0,No
17,30,71,41,13,11,22,21,3,4,4,11,17,1679,0,Yes
7,26,52,0,1,3,0,0,0,0,0,0,0,217,0,Yes
3,17,16,0,1,3,0,0,0,0,0,0,0,387,0,No
7,0,16,0,0,2,0,0,0,0,0,0,0,212,0,No
3,4,17,0,1,3,0,0,0,0,0,0,0,786,0,Yes
4,0,23,0,0,1,0,0,0,0,0,0,0,601,0,No
13,15,37,4,10,8,2,2,0,0,1,1,1,1228,0,No
5,6,7,0,1,2,0,0,0,0,0,0,0,178,0,No
7,9,10,0,6,8,0,0,0,0,0,0,0,1739,0,No
6,8,6,0,3,7,0,0,0,0,0,0,0,1224,0,No
7,7,7,0,1,5,0,0,0,0,0,0,0,1224,0,No
8,5,16,0,0,2,0,0,0,0,0,0,0,273,0,No
16,1,20,0,0,3,0,0,0,0,0,0,0,822,0,No
4,0,8,0,0,2,0,0,0,0,0,0,0,219,0,No
7,16,42,0,4,5,0,0,0,0,0,0,0,1339,0,No
1,3,5,0,2,2,0,0,0,0,0,0,0,499,0,No
12,22,39,18,3,7,16,16,14,14,2,4,7,1500,0,No
6,5,18,0,2,8,0,0,0,0,0,0,0,1235,0,No
10,23,38,0,5,8,0,0,0,0,0,0,0,1716,0,No
17,30,71,0,13,11,0,0,0,0,0,0,0,1728,0,Yes
8,28,54,11,2,3,9,9,7,7,1,1,1,266,0,No
3,17,16,0,1,3,0,0,0,0,0,0,0,436,0,No
7,0,16,0,0,2,0,0,0,0,0,0,0,261,0,No
4,0,23,0,0,1,0,0,0,0,0,0,0,647,0,No
13,15,37,0,10,8,0,0,0,0,0,0,0,1274,0,No
5,6,7,0,1,2,0,0,0,0,0,0,0,224,0,No
7,9,10,0,6,8,0,0,0,0,0,0,0,1785,0,No
6,8,6,0,3,7,0,0,0,0,0,0,0,1270,0,No
7,7,7,0,1,5,0,0,0,0,0,0,0,1270,0,No
8,5,16,0,0,2,0,0,0,0,0,0,0,319,0,No
16,1,20,0,0,3,0,0,0,0,0,0,0,868,0,No
4,0,8,0,0,2,0,0,0,0,0,0,0,265,0,No
7,16,42,0,4,5,0,0,0,0,0,0,0,1385,0,No
1,3,5,0,2,2,0,0,0,0,0,0,0,545,0,No
12,22,39,0,3,7,0,0,0,0,0,0,0,1546,0,No
6,5,18,0,2,8,0,0,0,0,0,0,0,1281,0,No
10,23,38,0,5,8,0,0,0,0,0,0,0,1762,0,No
17,30,71,0,13,11,0,0,0,0,0,0,0,1774,0,Yes
8,28,54,0,2,3,0,0,0,0,0,0,0,312,0,No
3,17,16,0,1,3,0,0,0,0,0,0,0,482,0,No
7,0,16,0,0,2,0,0,0,0,0,0,0,307,0,No
4,0,23,0,0,1,0,0,0,0,0,0,0,731,0,No
13,15,37,0,10,8,0,0,0,0,0,0,0,1358,0,No
5,6,7,0,1,2,0,0,0,0,0,0,0,308,0,No
7,9,10,0,6,8,0,0,0,0,0,0,0,1869,0,No
6,8,6,0,3,7,0,0,0,0,0,0,0,1354,0,No
7,7,7,0,1,5,0,0,0,0,0,0,0,1354,0,No
8,5,16,0,0,2,0,0,0,0,0,0,0,403,0,No
16,1,20,0,0,3,0,0,0,0,0,0,0,952,0,No
4,0,8,0,0,2,0,0,0,0,0,0,0,349,0,No
7,16,42,2,4,5,1,1,0,0,3,15,23,1469,0,No
1,3,5,0,2,2,0,0,0,0,0,0,0,629,0,No
12,22,39,0,3,7,0,0,0,0,0,0,0,1630,0,No
6,5,18,0,2,8,0,0,0,0,0,0,0,1365,0,No
10,23,38,0,5,8,0,0,0,0,0,0,0,1846,0,No
17,30,74,51,13,11,28,28,5,5,3,15,23,1858,0,Yes
8,28,54,0,2,3,0,0,0,0,0,0,0,396,0,No
3,17,16,0,1,3,0,0,0,0,0,0,0,566,0,No
7,0,16,0,0,2,0,0,0,0,0,0,0,391,0,No
15,14,43,2499,0,4,1471,253,443,253,132,787,3971,758,0,No
5,13,25,464,0,4,335,247,206,247,42,374,2763,282,0,No
24,14,36,689,0,4,592,285,495,284,48,391,2836,783,0,No
15,14,23,798,0,4,566,350,334,350,49,404,2912,333,0,No
5,3,8,300,0,3,220,160,140,160,35,347,2717,268,0,No
26,15,67,9445,0,4,5027,539,609,450,171,953,4448,783,0,No
14,13,30,658,0,4,441,148,224,148,67,518,3006,375,0,Yes
6,15,44,680,0,4,495,324,310,322,55,431,2871,383,0,No
11,20,35,2877,0,6,1661,411,445,411,126,770,3593,762,0,No
10,29,52,2696,0,6,1559,109,422,103,233,1436,4978,772,0,No
15,14,43,0,0,4,0,0,0,0,0,0,0,781,0,No
5,13,25,0,0,4,0,0,0,0,0,0,0,305,0,No
24,14,36,0,0,4,0,0,0,0,0,0,0,806,0,No
15,14,23,0,0,4,0,0,0,0,0,0,0,356,0,No
5,3,8,0,0,3,0,0,0,0,0,0,0,291,0,No
26,15,67,0,0,4,0,0,0,0,0,0,0,806,0,No
14,13,30,0,0,4,0,0,0,0,0,0,0,398,0,Yes
6,15,44,0,0,4,0,0,0,0,0,0,0,406,0,No
11,20,35,0,0,6,0,0,0,0,0,0,0,785,0,No
10,29,52,0,0,6,0,0,0,0,0,0,0,795,0,No
15,14,43,4,0,5,2,2,0,0,1,2,25,813,0,No
5,13,25,4,0,5,2,2,0,0,1,2,25,337,0,No
24,14,36,0,0,4,0,0,0,0,0,0,0,838,0,No
15,14,23,0,0,4,0,0,0,0,0,0,0,388,0,No
5,3,8,0,0,3,0,0,0,0,0,0,0,323,0,No
26,15,67,0,0,4,0,0,0,0,0,0,0,838,0,No
6,15,44,0,0,4,0,0,0,0,0,0,0,438,0,No
11,20,35,0,0,6,0,0,0,0,0,0,0,817,0,No
10,29,52,0,0,6,0,0,0,0,0,0,0,827,0,Yes
15,14,43,0,0,5,0,0,0,0,0,0,0,815,0,No
5,13,25,0,0,5,0,0,0,0,0,0,0,339,0,No
24,14,36,0,0,4,0,0,0,0,0,0,0,840,0,No
15,14,23,0,0,4,0,0,0,0,0,0,0,390,0,No
5,3,8,0,0,3,0,0,0,0,0,0,0,325,0,No
26,15,67,0,0,4,0,0,0,0,0,0,0,840,0,No
6,15,44,0,0,4,0,0,0,0,0,0,0,440,0,No
11,20,35,0,0,6,0,0,0,0,0,0,0,819,0,No
10,29,52,0,0,6,0,0,0,0,0,0,0,829,0,Yes
15,14,43,0,0,5,0,0,0,0,0,0,0,884,0,No
5,13,25,0,0,5,0,0,0,0,0,0,0,408,0,Yes
24,14,36,0,0,4,0,0,0,0,0,0,0,909,0,No
15,14,23,0,0,4,0,0,0,0,0,0,0,459,0,Yes
5,3,8,48,0,3,23,23,-2,0,1,1,1,394,0,No
26,15,67,0,0,4,0,0,0,0,0,0,0,909,0,No
6,15,44,0,0,4,0,0,0,0,0,0,0,509,0,Yes
11,20,35,0,0,6,0,0,0,0,0,0,0,888,0,Yes
11,29,54,19,1,6,14,7,9,7,5,13,17,898,0,No
15,14,43,0,0,5,0,0,0,0,0,0,0,928,0,Yes
5,13,25,0,0,5,0,0,0,0,0,0,0,452,0,Yes
24,14,36,0,0,4,0,0,0,0,0,0,0,953,0,Yes
15,14,23,4,0,5,2,2,0,0,1,2,4,503,0,Yes
5,3,8,0,0,3,0,0,0,0,0,0,0,438,0,No
26,15,67,50,0,4,26,26,2,2,1,2,3,953,0,Yes
6,15,44,0,0,4,0,0,0,0,0,0,0,553,0,No
11,20,35,4,0,6,2,2,0,0,2,9,15,932,0,Yes
11,30,56,24,1,6,17,17,10,10,1,2,2,942,0,No
20,19,73,204,2,3,72,55,-60,8,3,13,17,327,0,No
15,14,43,75,1,5,38,23,1,1,3,14,100,963,0,No
5,14,25,43,0,5,23,23,3,3,1,9,92,487,0,No
35,17,64,39,0,4,20,11,1,2,4,16,107,369,0,Yes
24,15,36,40,0,4,20,20,0,0,1,9,92,988,0,Yes
5,3,8,16,0,3,7,7,-2,0,1,9,92,473,0,No
26,16,67,40,0,4,24,24,8,8,1,9,92,988,0,No
6,15,44,0,0,4,0,0,0,0,0,0,0,588,0,Yes
11,20,35,0,0,6,0,0,0,0,0,0,0,967,0,No
11,30,56,0,1,6,0,0,0,0,0,0,0,977,0,Yes
12,20,82,294,6,4,173,76,52,27,5,14,20,361,0,No
21,19,76,12,2,3,12,12,12,12,1,4,8,362,0,No
15,14,43,0,1,5,0,0,0,0,0,0,0,990,0,No
5,14,25,0,0,5,0,0,0,0,0,0,0,514,0,No
35,17,64,0,0,4,0,0,0,0,0,0,0,396,0,No
24,15,36,0,0,4,0,0,0,0,0,0,0,1015,0,Yes
2,4,5,39,0,4,6,3,-27,0,2,9,10,500,0,No
26,16,67,0,0,4,0,0,0,0,0,0,0,1015,0,Yes
6,15,44,0,0,4,0,0,0,0,0,0,0,615,0,Yes
11,20,35,0,0,6,0,0,0,0,0,0,0,994,0,No
11,30,56,0,1,6,0,0,0,0,0,0,0,1004,0,No
12,20,82,0,6,4,0,0,0,0,0,0,0,388,0,No
21,19,76,0,2,3,0,0,0,0,0,0,0,389,0,No
3,0,9,103,0,1,103,103,103,103,7,26,39,8,0,No
1,0,10,0,0,1,0,0,0,0,0,0,0,118,0,No
11,18,70,0,3,5,0,0,0,0,0,0,0,394,0,No
25,17,40,0,2,7,0,0,0,0,0,0,0,1025,0,Yes
8,8,14,0,1,7,0,0,0,0,0,0,0,1025,0,No
9,14,23,0,0,6,0,0,0,0,0,0,0,419,0,No
16,1,20,0,0,2,0,0,0,0,0,0,0,108,0,No
6,22,44,0,2,5,0,0,0,0,0,0,0,625,0,Yes
5,22,49,0,0,6,0,0,0,0,0,0,0,1014,0,No
12,32,61,0,1,10,0,0,0,0,0,0,0,1014,0,No
15,14,43,0,1,5,0,0,0,0,0,0,0,1013,0,No
5,14,25,0,0,5,0,0,0,0,0,0,0,537,0,No
35,17,64,0,0,4,0,0,0,0,0,0,0,419,0,No
24,15,36,0,0,4,0,0,0,0,0,0,0,1038,0,Yes
2,4,5,0,0,4,0,0,0,0,0,0,0,523,0,No
17,16,81,33,0,6,15,15,-3,0,1,2,3,821,0,Yes
6,15,44,0,0,4,0,0,0,0,0,0,0,638,0,Yes
11,20,35,0,0,6,0,0,0,0,0,0,0,1017,0,No
11,30,56,0,1,6,0,0,0,0,0,0,0,1027,0,No
12,20,82,0,6,4,0,0,0,0,0,0,0,411,0,No
21,19,76,0,2,3,0,0,0,0,0,0,0,412,0,No
3,0,9,0,0,1,0,0,0,0,0,0,0,32,0,No
1,0,10,0,0,1,0,0,0,0,0,0,0,142,0,No
11,18,70,0,3,5,0,0,0,0,0,0,0,418,0,No
25,17,40,0,2,7,0,0,0,0,0,0,0,1049,0,Yes
8,8,14,0,1,7,0,0,0,0,0,0,0,1049,0,No
9,14,23,0,0,6,0,0,0,0,0,0,0,443,0,No
16,1,20,0,0,2,0,0,0,0,0,0,0,132,0,No
20,26,55,13,5,9,13,13,13,13,1,5,5,1026,0,No
6,22,44,0,2,5,0,0,0,0,0,0,0,649,0,Yes
6,25,54,29,1,6,29,29,29,29,1,5,5,1038,0,No
12,32,61,0,1,10,0,0,0,0,0,0,0,1038,0,Yes
3,0,9,0,0,1,0,0,0,0,0,0,0,75,0,No
1,0,10,0,0,1,0,0,0,0,0,0,0,185,0,No
25,16,40,73,3,8,35,28,-3,1,9,25,169,1092,0,Yes
8,9,14,16,1,7,9,5,2,1,4,11,87,1092,0,No
5,4,5,67,0,5,46,45,25,25,2,3,5,577,0,No
10,15,24,51,0,6,29,14,7,9,6,13,61,486,0,No
16,1,20,0,0,2,0,0,0,0,0,0,0,175,0,No
6,10,7,12,1,5,3,3,-6,0,1,4,44,1040,0,No
20,26,55,0,5,9,0,0,0,0,0,0,0,1069,0,No
6,22,44,0,2,5,0,0,0,0,0,0,0,692,0,Yes
6,25,54,0,1,6,0,0,0,0,0,0,0,1081,0,No
3,0,9,0,0,1,0,0,0,0,0,0,0,106,0,No
1,0,10,0,0,1,0,0,0,0,0,0,0,216,0,No
26,16,41,28,3,8,12,12,-4,0,1,6,10,1123,0,Yes
8,9,14,0,1,7,0,0,0,0,0,0,0,1123,0,No
5,4,5,3,0,5,1,1,-1,0,1,6,10,608,0,No
10,15,24,0,0,6,0,0,0,0,0,0,0,517,0,No
6,10,7,3,1,5,1,1,-1,0,1,6,10,1071,0,No
20,26,55,0,5,9,0,0,0,0,0,0,0,1100,0,No
6,22,44,0,2,5,0,0,0,0,0,0,0,723,0,Yes
6,25,54,0,1,6,0,0,0,0,0,0,0,1112,0,No
3,0,9,0,0,1,0,0,0,0,0,0,0,183,0,No
1,0,10,0,0,1,0,0,0,0,0,0,0,293,0,No
26,16,41,0,3,8,0,0,0,0,0,0,0,1200,0,Yes
8,9,14,0,1,7,0,0,0,0,0,0,0,1200,0,Yes
5,4,5,0,0,5,0,0,0,0,0,0,0,685,0,No
10,15,24,0,0,6,0,0,0,0,0,0,0,594,0,No
6,10,7,0,1,5,0,0,0,0,0,0,0,1148,0,No
20,26,55,0,5,9,0,0,0,0,0,0,0,1177,0,Yes
6,22,44,0,2,5,0,0,0,0,0,0,0,800,0,Yes
6,25,54,0,1,6,0,0,0,0,0,0,0,1189,0,Yes
3,0,9,0,0,1,0,0,0,0,0,0,0,245,0,No
1,0,10,0,0,1,0,0,0,0,0,0,0,355,0,No
19,17,43,274,5,8,89,87,-96,1,12,71,143,1262,0,Yes
8,9,14,2,2,7,1,1,0,0,4,19,27,1262,0,Yes
7,7,7,63,0,5,46,46,29,29,1,6,11,747,0,No
10,15,24,2,0,6,1,1,0,0,4,22,49,656,0,Yes
20,28,63,55,6,9,41,37,27,26,3,22,41,1239,0,Yes
7,17,49,81,2,5,57,40,33,40,6,28,60,862,0,Yes
14,18,43,102,3,9,35,35,-32,0,7,39,92,1241,0,No
6,25,54,0,1,6,0,0,0,0,0,0,0,1251,0,Yes
12,31,55,3,5,10,0,0,-3,0,5,39,86,1251,0,Yes
3,0,9,0,0,1,0,0,0,0,0,0,0,331,0,No
1,0,10,0,0,1,0,0,0,0,0,0,0,441,0,No
19,17,43,135,8,8,69,54,3,3,5,15,65,1348,0,No
8,9,14,80,4,7,40,21,0,2,3,7,51,1348,0,No
7,7,7,0,0,5,0,0,0,0,0,0,0,833,0,No
10,15,24,3,1,6,1,1,-1,0,2,8,14,742,0,No
20,28,67,57,9,9,35,30,13,13,4,14,20,1325,0,Yes
7,17,49,0,2,5,0,0,0,0,0,0,0,948,0,No
14,18,43,0,3,9,0,0,0,0,0,0,0,1327,0,No
6,25,54,2,2,7,1,1,0,0,2,4,6,1337,0,No
14,32,57,83,7,10,52,28,21,21,4,7,9,1337,0,Yes
3,0,9,0,0,1,0,0,0,0,0,0,0,379,0,No
1,0,10,0,0,1,0,0,0,0,0,0,0,489,0,No
19,17,43,0,8,8,0,0,0,0,0,0,0,1396,0,No
8,9,14,0,4,7,0,0,0,0,0,0,0,1396,0,No
7,7,7,0,0,5,0,0,0,0,0,0,0,881,0,No
10,15,24,0,1,6,0,0,0,0,0,0,0,790,0,No
20,28,67,2,9,9,1,1,0,0,1,9,15,1373,0,Yes
7,17,49,0,2,5,0,0,0,0,0,0,0,996,0,No
14,18,43,0,3,9,0,0,0,0,0,0,0,1375,0,No
6,25,54,0,2,7,0,0,0,0,0,0,0,1385,0,No
14,32,57,0,7,10,0,0,0,0,0,0,0,1385,0,Yes
3,0,9,0,0,1,0,0,0,0,0,0,0,462,0,No
1,0,10,0,0,1,0,0,0,0,0,0,0,572,0,No
19,17,43,0,8,8,0,0,0,0,0,0,0,1479,0,No
8,9,14,0,4,7,0,0,0,0,0,0,0,1479,0,No
7,7,7,0,0,5,0,0,0,0,0,0,0,964,0,No
10,15,24,0,1,6,0,0,0,0,0,0,0,873,0,No
20,28,67,0,9,9,0,0,0,0,0,0,0,1456,0,No
7,17,49,0,2,5,0,0,0,0,0,0,0,1079,0,No
14,17,43,31,3,9,8,5,-15,1,8,29,54,1458,0,No
6,25,54,0,2,7,0,0,0,0,0,0,0,1468,0,Yes
14,32,57,6,8,11,3,2,0,0,2,19,39,1468,0,Yes
1,0,10,2,0,1,1,1,0,0,5,10,17,639,0,No
10,10,12,0,7,8,0,0,0,0,0,0,0,1545,0,No
7,17,14,0,1,3,0,0,0,0,0,0,0,335,0,No
8,8,13,0,5,8,0,0,0,0,0,0,0,1546,0,No
11,12,55,0,3,9,0,0,0,0,0,0,0,1521,0,No
15,16,25,0,3,8,0,0,0,0,0,0,0,1096,0,No
7,7,7,0,0,5,0,0,0,0,0,0,0,1031,0,No
15,17,38,0,4,8,0,0,0,0,0,0,0,1138,0,No
9,34,49,12,3,9,10,10,8,8,2,7,11,1035,0,No
7,19,49,0,3,5,0,0,0,0,0,0,0,1146,0,Yes
14,17,43,0,2,9,0,0,0,0,0,0,0,1525,0,No
7,39,74,0,3,7,0,0,0,0,0,0,0,1535,0,Yes
17,33,70,6,12,11,3,3,0,0,3,23,42,1535,0,Yes
9,17,37,150,9,9,85,29,20,18,4,4,4,1361,0,No
1,0,10,0,0,1,0,0,0,0,0,0,0,664,0,No
13,16,37,12,8,8,9,9,6,6,4,10,35,1060,0,Yes
7,17,14,0,1,3,0,0,0,0,0,0,0,360,0,No
5,5,7,140,0,1,135,124,130,124,5,12,28,10,0,Yes
8,8,13,0,5,8,0,0,0,0,0,0,0,1571,0,No
11,12,55,0,3,9,0,0,0,0,0,0,0,1546,0,Yes
15,16,25,0,3,8,0,0,0,0,0,0,0,1121,0,No
7,7,7,0,0,5,0,0,0,0,0,0,0,1056,0,Yes
15,17,38,0,4,8,0,0,0,0,0,0,0,1163,0,No
9,34,49,0,3,9,0,0,0,0,0,0,0,1060,0,No
7,19,49,0,3,5,0,0,0,0,0,0,0,1171,0,Yes
14,17,44,0,2,9,0,0,0,0,0,0,0,1550,0,Yes
7,7,22,150,0,1,150,150,150,150,3,26,61,13,0,Yes
7,39,74,17,5,7,7,7,-3,0,2,5,5,1560,0,Yes
9,17,37,0,9,9,0,0,0,0,0,0,0,1386,0,No
1,6,11,90,1,2,72,48,54,43,3,10,25,93,0,No
3,0,9,1,1,2,0,0,-1,0,6,14,15,599,0,No
1,0,10,0,0,1,0,0,0,0,0,0,0,709,0,No
13,13,38,153,10,8,32,14,-89,13,8,17,45,1591,0,No
7,17,14,0,1,3,0,0,0,0,0,0,0,405,0,No
8,8,13,2,5,8,1,1,0,0,1,6,31,1616,0,No
11,12,55,16,4,9,10,8,4,4,2,9,33,1591,0,No
10,27,65,220,4,7,129,59,38,46,7,27,65,1200,0,No
4,8,5,270,0,2,200,175,130,175,5,18,55,30,0,No
15,16,25,2,3,8,1,1,0,0,1,7,31,1166,0,No
15,17,38,0,4,8,0,0,0,0,0,0,0,1208,0,No
9,34,49,0,3,9,0,0,0,0,0,0,0,1105,0,No
7,19,49,5,4,5,3,3,1,1,1,1,2,1216,0,No
14,16,46,35,3,9,18,10,1,4,5,7,10,1595,0,No
7,7,22,4,1,1,2,2,0,0,2,7,8,58,0,No
7,39,74,0,5,7,0,0,0,0,0,0,0,1605,0,Yes
9,17,37,0,9,9,0,0,0,0,0,0,0,1431,0,No
1,6,12,9,1,3,6,6,3,3,1,2,2,138,0,No
3,0,9,0,1,2,0,0,0,0,0,0,0,673,0,No
1,0,10,0,0,1,0,0,0,0,0,0,0,783,0,No
13,13,38,0,10,8,0,0,0,0,0,0,0,1665,0,No
7,17,14,0,1,3,0,0,0,0,0,0,0,479,0,No
8,8,13,0,5,8,0,0,0,0,0,0,0,1690,0,No
11,12,55,0,4,9,0,0,0,0,0,0,0,1665,0,No
10,27,65,0,4,7,0,0,0,0,0,0,0,1274,0,No
4,8,5,0,0,2,0,0,0,0,0,0,0,104,0,No
15,16,25,0,3,8,0,0,0,0,0,0,0,1240,0,No
15,17,38,0,4,8,0,0,0,0,0,0,0,1282,0,No
10,34,50,5,4,9,5,5,5,5,1,1,2,1179,0,No
7,19,49,0,4,5,0,0,0,0,0,0,0,1290,0,No
14,16,46,0,3,9,0,0,0,0,0,0,0,1669,0,No
7,7,22,0,1,1,0,0,0,0,0,0,0,132,0,No
7,39,76,26,6,7,18,18,10,10,3,5,10,1679,0,Yes
9,17,37,0,9,9,0,0,0,0,0,0,0,1505,0,No
5,4,60,9,4,8,8,8,7,7,1,2,2,1113,0,Yes
1,6,12,0,1,3,0,0,0,0,0,0,0,212,0,No
3,0,9,0,1,2,0,0,0,0,0,0,0,722,0,No
1,0,10,0,0,1,0,0,0,0,0,0,0,832,0,No
13,13,38,0,10,8,0,0,0,0,0,0,0,1714,0,No
7,17,14,0,1,3,0,0,0,0,0,0,0,528,0,No
8,8,13,0,5,8,0,0,0,0,0,0,0,1739,0,No
11,12,55,0,4,9,0,0,0,0,0,0,0,1714,0,No
10,27,65,0,4,7,0,0,0,0,0,0,0,1323,0,No
4,8,5,0,0,2,0,0,0,0,0,0,0,153,0,No
15,16,25,0,3,8,0,0,0,0,0,0,0,1289,0,No
15,17,38,0,4,8,0,0,0,0,0,0,0,1331,0,No
10,34,50,0,4,9,0,0,0,0,0,0,0,1228,0,No
7,19,49,0,4,5,0,0,0,0,0,0,0,1339,0,No
14,16,46,0,3,9,0,0,0,0,0,0,0,1718,0,No
7,7,22,0,1,1,0,0,0,0,0,0,0,181,0,No
7,39,76,0,6,7,0,0,0,0,0,0,0,1728,0,Yes
9,17,37,2,9,9,1,1,0,0,1,1,1,1554,0,No
5,4,60,0,4,8,0,0,0,0,0,0,0,1162,0,Yes
1,6,12,0,1,3,0,0,0,0,0,0,0,261,0,No
3,0,9,0,1,2,0,0,0,0,0,0,0,768,0,No
1,0,10,0,0,1,0,0,0,0,0,0,0,878,0,No
3,4,17,16,2,4,7,7,-2,0,2,7,8,832,0,No
13,13,38,0,10,8,0,0,0,0,0,0,0,1760,0,No
7,17,14,0,1,3,0,0,0,0,0,0,0,574,0,No
8,8,13,0,5,8,0,0,0,0,0,0,0,1785,0,No
11,12,55,0,4,9,0,0,0,0,0,0,0,1760,0,No
10,27,65,0,4,7,0,0,0,0,0,0,0,1369,0,No
4,8,5,0,0,2,0,0,0,0,0,0,0,199,0,No
15,16,25,0,3,8,0,0,0,0,0,0,0,1335,0,No
15,17,38,0,4,8,0,0,0,0,0,0,0,1377,0,Yes
10,34,50,0,4,9,0,0,0,0,0,0,0,1274,0,Yes
7,19,49,0,4,5,0,0,0,0,0,0,0,1385,0,No
14,16,46,0,3,9,0,0,0,0,0,0,0,1764,0,No
7,7,22,0,1,1,0,0,0,0,0,0,0,227,0,No
7,39,76,0,6,7,0,0,0,0,0,0,0,1774,0,Yes
9,17,37,0,9,9,0,0,0,0,0,0,0,1600,0,No
5,4,60,0,4,8,0,0,0,0,0,0,0,1208,0,Yes
1,6,12,0,1,3,0,0,0,0,0,0,0,307,0,No
3,0,9,0,1,2,0,0,0,0,0,0,0,852,0,No
1,0,10,0,0,1,0,0,0,0,0,0,0,962,0,No
3,4,17,0,2,4,0,0,0,0,0,0,0,916,0,No
13,13,38,0,10,8,0,0,0,0,0,0,0,1844,0,No
7,17,14,0,1,3,0,0,0,0,0,0,0,658,0,No
8,8,13,36,5,8,20,20,4,4,1,1,1,1869,0,No
11,12,55,0,4,9,0,0,0,0,0,0,0,1844,0,No
10,27,65,0,4,7,0,0,0,0,0,0,0,1453,0,Yes
4,8,5,0,0,2,0,0,0,0,0,0,0,283,0,No
15,16,25,0,3,8,0,0,0,0,0,0,0,1419,0,No
15,17,38,4,5,9,2,2,0,0,1,2,2,1461,0,No
10,34,52,39,5,10,23,7,7,3,6,18,26,1358,0,No
7,19,49,4,4,5,2,2,0,0,3,15,23,1469,0,No
14,16,46,0,3,9,0,0,0,0,0,0,0,1848,0,No
7,7,22,0,1,1,0,0,0,0,0,0,0,311,0,No
7,39,77,80,6,7,41,41,2,2,3,15,23,1858,0,Yes
9,17,37,0,9,9,0,0,0,0,0,0,0,1684,0,No
5,4,60,0,4,8,0,0,0,0,0,0,0,1292,0,Yes
1,6,12,0,1,3,0,0,0,0,0,0,0,391,0,No
35,16,64,942,0,2,758,453,574,453,25,193,1421,164,0,No
9,9,37,1217,0,5,759,162,301,162,85,557,3505,758,0,No
8,13,14,1977,0,5,1113,151,249,133,100,628,3726,783,0,No
10,13,17,2202,0,5,1238,151,274,133,114,698,3934,783,0,No
12,14,19,2285,0,5,1290,151,295,133,111,686,3941,783,0,No
10,1,24,701,0,5,458,324,215,324,50,419,2939,339,0,No
4,11,15,628,0,3,369,47,110,43,103,695,3433,822,0,No
13,19,41,932,0,5,690,394,448,394,52,412,2872,177,0,Yes
16,27,43,1817,0,4,1139,228,461,228,121,752,3544,656,0,No
6,3,6,167,0,4,129,53,91,47,37,343,2635,258,0,No
23,20,94,790,0,3,669,270,548,237,25,181,1274,157,0,No
35,16,64,0,0,2,0,0,0,0,0,0,0,187,0,No
9,9,37,0,0,5,0,0,0,0,0,0,0,781,0,No
8,13,14,0,0,5,0,0,0,0,0,0,0,806,0,No
10,13,17,0,0,5,0,0,0,0,0,0,0,806,0,No
12,14,19,0,0,5,0,0,0,0,0,0,0,806,0,No
10,1,24,0,0,5,0,0,0,0,0,0,0,362,0,No
4,11,15,0,0,3,0,0,0,0,0,0,0,845,0,No
13,19,41,0,0,5,0,0,0,0,0,0,0,200,0,Yes
16,27,43,0,0,4,0,0,0,0,0,0,0,679,0,No
6,3,6,0,0,4,0,0,0,0,0,0,0,281,0,No
23,20,94,0,0,3,0,0,0,0,0,0,0,180,0,No
35,16,64,6,0,4,3,2,0,0,2,4,28,219,0,No
9,9,37,6,0,6,3,3,0,0,1,2,25,813,0,No
8,13,14,4,0,5,2,2,0,0,1,1,4,838,0,No
10,13,17,4,0,5,2,2,0,0,1,1,4,838,0,No
12,14,19,4,0,5,2,2,0,0,1,1,4,838,0,No
10,1,24,0,0,5,0,0,0,0,0,0,0,394,0,No
14,13,34,0,0,4,0,0,0,0,0,0,0,430,0,Yes
4,11,15,0,0,3,0,0,0,0,0,0,0,877,0,No
16,27,43,0,0,4,0,0,0,0,0,0,0,711,0,Yes
6,3,6,0,0,4,0,0,0,0,0,0,0,313,0,No
23,20,94,0,0,3,0,0,0,0,0,0,0,212,0,No
35,16,64,0,0,4,0,0,0,0,0,0,0,221,0,No
9,9,37,0,0,6,0,0,0,0,0,0,0,815,0,No
8,13,14,0,0,5,0,0,0,0,0,0,0,840,0,No
10,13,17,0,0,5,0,0,0,0,0,0,0,840,0,No
12,14,19,0,0,5,0,0,0,0,0,0,0,840,0,No
10,1,24,0,0,5,0,0,0,0,0,0,0,396,0,No
14,13,34,24,1,4,22,22,20,20,1,8,14,432,0,Yes
4,11,15,0,0,3,0,0,0,0,0,0,0,879,0,No
16,27,43,0,0,4,0,0,0,0,0,0,0,713,0,Yes
6,3,6,0,0,4,0,0,0,0,0,0,0,315,0,No
23,20,94,0,0,3,0,0,0,0,0,0,0,214,0,No
35,16,64,0,0,4,0,0,0,0,0,0,0,290,0,No
9,9,37,0,0,6,0,0,0,0,0,0,0,884,0,No
8,13,14,0,0,5,0,0,0,0,0,0,0,909,0,No
10,13,17,0,0,5,0,0,0,0,0,0,0,909,0,No
12,14,19,0,0,5,0,0,0,0,0,0,0,909,0,No
10,1,24,0,0,5,0,0,0,0,0,0,0,465,0,No
14,13,34,8,4,4,4,2,0,0,3,9,20,501,0,Yes
4,11,15,0,0,3,0,0,0,0,0,0,0,948,0,No
16,27,43,0,0,4,0,0,0,0,0,0,0,782,0,Yes
6,3,6,0,0,4,0,0,0,0,0,0,0,384,0,No
23,20,94,0,0,3,0,0,0,0,0,0,0,283,0,Yes
35,16,64,0,0,4,0,0,0,0,0,0,0,334,0,Yes
9,9,37,0,0,6,0,0,0,0,0,0,0,928,0,Yes
8,13,14,0,0,5,0,0,0,0,0,0,0,953,0,Yes
10,13,17,0,0,5,0,0,0,0,0,0,0,953,0,Yes
12,14,19,0,0,5,0,0,0,0,0,0,0,953,0,Yes
10,1,24,0,0,5,0,0,0,0,0,0,0,509,0,No
14,13,34,0,4,4,0,0,0,0,0,0,0,545,0,No
4,11,15,0,0,3,0,0,0,0,0,0,0,992,0,No
16,27,43,0,0,4,0,0,0,0,0,0,0,826,0,Yes
6,3,6,0,0,4,0,0,0,0,0,0,0,428,0,No
9,9,37,38,0,6,18,15,-2,0,2,11,100,963,0,No
8,12,14,33,0,5,17,17,1,1,1,9,92,988,0,Yes
10,14,17,44,0,5,21,21,-2,0,1,9,92,988,0,Yes
12,15,19,18,0,5,9,9,0,0,1,9,92,988,0,Yes
10,1,24,0,0,5,0,0,0,0,0,0,0,544,0,Yes
14,13,34,0,4,4,0,0,0,0,0,0,0,580,0,No
4,11,15,0,0,3,0,0,0,0,0,0,0,1027,0,No
16,27,43,0,0,4,0,0,0,0,0,0,0,861,0,Yes
6,3,6,0,0,4,0,0,0,0,0,0,0,463,0,No
9,9,37,0,0,6,0,0,0,0,0,0,0,990,0,No
8,12,14,0,0,5,0,0,0,0,0,0,0,1015,0,No
10,14,17,0,0,5,0,0,0,0,0,0,0,1015,0,No
12,15,19,0,0,5,0,0,0,0,0,0,0,1015,0,No
10,1,24,0,0,5,0,0,0,0,0,0,0,571,0,No
14,13,34,0,4,4,0,0,0,0,0,0,0,607,0,No
4,11,15,0,0,3,0,0,0,0,0,0,0,1054,0,No
16,27,43,0,0,4,0,0,0,0,0,0,0,888,0,Yes
6,3,6,0,0,4,0,0,0,0,0,0,0,490,0,No
7,13,27,11,2,7,5,5,-1,0,1,2,3,524,0,No
10,11,41,0,2,8,0,0,0,0,0,0,0,1000,0,No
10,13,19,0,2,7,0,0,0,0,0,0,0,1025,0,No
11,15,20,0,2,7,0,0,0,0,0,0,0,1025,0,No
1,4,1,0,0,4,0,0,0,0,0,0,0,510,0,No
12,15,22,0,2,7,0,0,0,0,0,0,0,1025,0,No
16,17,26,0,2,7,0,0,0,0,0,0,0,1025,0,No
9,0,23,0,1,7,0,0,0,0,0,0,0,581,0,No
6,9,7,0,1,4,0,0,0,0,0,0,0,973,0,No
13,14,34,3,1,8,1,1,-1,0,1,8,15,617,0,No
4,11,15,0,0,4,0,0,0,0,0,0,0,1064,0,No
6,2,6,0,0,7,0,0,0,0,0,0,0,500,0,No
5,4,57,415,3,7,104,104,-207,0,1,7,13,448,0,No
9,9,37,0,0,6,0,0,0,0,0,0,0,1013,0,No
8,12,14,0,0,5,0,0,0,0,0,0,0,1038,0,No
10,14,17,0,0,5,0,0,0,0,0,0,0,1038,0,No
12,15,19,0,0,5,0,0,0,0,0,0,0,1038,0,No
26,15,67,68,1,4,29,29,-10,0,1,1,1,1038,0,No
10,1,24,0,0,5,0,0,0,0,0,0,0,594,0,No
14,13,34,0,4,4,0,0,0,0,0,0,0,630,0,No
4,11,15,0,0,3,0,0,0,0,0,0,0,1077,0,No
16,27,43,0,0,4,0,0,0,0,0,0,0,911,0,Yes
6,3,6,0,0,4,0,0,0,0,0,0,0,513,0,No
7,13,27,0,2,7,0,0,0,0,0,0,0,548,0,No
10,11,41,0,2,8,0,0,0,0,0,0,0,1024,0,No
10,13,19,0,2,7,0,0,0,0,0,0,0,1049,0,No
11,15,20,0,2,7,0,0,0,0,0,0,0,1049,0,No
1,4,1,0,0,4,0,0,0,0,0,0,0,534,0,No
12,15,22,0,2,7,0,0,0,0,0,0,0,1049,0,No
16,17,26,0,2,7,0,0,0,0,0,0,0,1049,0,No
9,0,23,0,1,7,0,0,0,0,0,0,0,605,0,No
6,9,7,0,1,4,0,0,0,0,0,0,0,997,0,No
13,14,34,0,1,8,0,0,0,0,0,0,0,641,0,No
4,11,15,0,0,4,0,0,0,0,0,0,0,1088,0,No
6,2,6,0,0,7,0,0,0,0,0,0,0,524,0,No
5,4,57,0,3,7,0,0,0,0,0,0,0,472,0,No
7,14,27,16,2,7,8,4,0,1,4,11,90,591,0,No
10,11,41,36,2,8,16,10,-4,1,7,22,161,1067,0,No
10,10,19,60,2,7,21,12,-18,1,9,24,135,1092,0,No
11,12,20,60,2,7,21,12,-18,1,9,24,135,1092,0,No
12,12,22,67,2,7,24,15,-19,1,9,24,135,1092,0,No
16,14,26,68,2,7,25,16,-18,1,9,24,135,1092,0,No
13,14,34,0,1,8,0,0,0,0,0,0,0,684,0,Yes
4,11,15,0,0,4,0,0,0,0,0,0,0,1131,0,No
12,32,55,46,3,10,17,17,-12,15,2,6,11,1081,0,No
6,2,6,0,0,7,0,0,0,0,0,0,0,567,0,No
5,4,57,0,3,7,0,0,0,0,0,0,0,515,0,No
7,14,27,0,2,7,0,0,0,0,0,0,0,622,0,No
10,11,41,0,2,8,0,0,0,0,0,0,0,1098,0,No
10,10,19,0,2,7,0,0,0,0,0,0,0,1123,0,No
11,12,20,0,2,7,0,0,0,0,0,0,0,1123,0,No
12,12,22,0,2,7,0,0,0,0,0,0,0,1123,0,No
16,14,26,0,2,7,0,0,0,0,0,0,0,1123,0,No
9,1,23,1,1,8,0,0,-1,0,1,3,5,679,0,No
4,11,15,0,0,4,0,0,0,0,0,0,0,1162,0,No
12,32,55,0,3,10,0,0,0,0,0,0,0,1112,0,No
6,2,6,0,0,7,0,0,0,0,0,0,0,598,0,No
5,4,57,0,3,7,0,0,0,0,0,0,0,546,0,No
7,14,27,0,2,7,0,0,0,0,0,0,0,699,0,No
10,11,41,0,2,8,0,0,0,0,0,0,0,1175,0,No
10,10,19,0,2,7,0,0,0,0,0,0,0,1200,0,No
11,12,20,0,2,7,0,0,0,0,0,0,0,1200,0,No
12,12,22,0,2,7,0,0,0,0,0,0,0,1200,0,No
16,14,26,0,2,7,0,0,0,0,0,0,0,1200,0,No
9,1,23,0,1,8,0,0,0,0,0,0,0,756,0,No
4,11,15,0,0,4,0,0,0,0,0,0,0,1239,0,Yes
12,32,55,0,3,10,0,0,0,0,0,0,0,1189,0,Yes
6,2,6,0,0,7,0,0,0,0,0,0,0,675,0,No
5,4,57,0,3,7,0,0,0,0,0,0,0,623,0,No
7,14,27,0,2,7,0,0,0,0,0,0,0,761,0,Yes
10,11,41,2,2,8,1,1,0,0,4,22,49,1237,0,No
10,10,19,0,2,7,0,0,0,0,0,0,0,1262,0,No
11,12,20,0,2,7,0,0,0,0,0,0,0,1262,0,No
12,12,22,0,2,7,0,0,0,0,0,0,0,1262,0,No
16,14,26,0,2,7,0,0,0,0,0,0,0,1262,0,No
9,1,23,0,1,8,0,0,0,0,0,0,0,818,0,No
13,14,34,3,3,8,0,0,-3,0,4,22,49,854,0,No
6,12,19,50,1,5,38,33,26,21,7,39,92,1301,0,No
19,26,63,119,3,7,42,41,-35,0,7,39,92,1135,0,Yes
6,2,6,0,0,7,0,0,0,0,0,0,0,737,0,No
5,4,57,0,3,7,0,0,0,0,0,0,0,685,0,No
10,11,41,0,2,8,0,0,0,0,0,0,0,1323,0,No
10,10,19,0,2,7,0,0,0,0,0,0,0,1348,0,No
11,12,20,0,2,7,0,0,0,0,0,0,0,1348,0,No
12,12,22,0,2,7,0,0,0,0,0,0,0,1348,0,No
16,14,26,0,2,7,0,0,0,0,0,0,0,1348,0,No
9,1,23,0,1,8,0,0,0,0,0,0,0,904,0,No
15,15,38,23,3,8,23,23,23,23,2,11,14,940,0,No
6,12,19,0,1,5,0,0,0,0,0,0,0,1387,0,No
19,26,63,0,3,7,0,0,0,0,0,0,0,1221,0,No
6,2,6,0,0,7,0,0,0,0,0,0,0,823,0,No
5,4,57,0,3,7,0,0,0,0,0,0,0,771,0,No
10,11,41,0,2,8,0,0,0,0,0,0,0,1371,0,Yes
10,10,19,0,2,7,0,0,0,0,0,0,0,1396,0,Yes
11,12,20,0,2,7,0,0,0,0,0,0,0,1396,0,Yes
12,12,22,0,2,7,0,0,0,0,0,0,0,1396,0,Yes
16,14,26,0,2,7,0,0,0,0,0,0,0,1396,0,Yes
9,1,23,0,1,8,0,0,0,0,0,0,0,952,0,No
15,15,38,0,3,8,0,0,0,0,0,0,0,988,0,No
6,12,19,0,1,5,0,0,0,0,0,0,0,1435,0,No
19,26,63,0,3,7,0,0,0,0,0,0,0,1269,0,No
6,2,6,0,0,7,0,0,0,0,0,0,0,871,0,Yes
5,4,57,0,3,7,0,0,0,0,0,0,0,819,0,No
10,11,41,0,2,8,0,0,0,0,0,0,0,1454,0,No
11,10,23,134,3,7,68,68,2,2,1,1,5,1479,0,No
12,12,24,126,3,7,64,64,2,2,1,1,5,1479,0,No
13,12,27,141,3,7,71,71,1,1,1,1,5,1479,0,No
17,14,31,142,3,7,72,72,2,2,1,1,5,1479,0,No
9,1,23,0,1,8,0,0,0,0,0,0,0,1035,0,Yes
15,15,38,2,3,8,1,1,0,0,1,16,36,1071,0,No
6,12,19,0,1,5,0,0,0,0,0,0,0,1518,0,No
19,26,63,0,3,7,0,0,0,0,0,0,0,1352,0,No
6,2,6,0,0,7,0,0,0,0,0,0,0,954,0,No
5,4,57,2,3,7,1,1,0,0,1,16,36,902,0,Yes
3,0,9,1,0,2,1,1,1,1,5,15,18,529,0,Yes
19,17,44,0,10,9,0,0,0,0,0,0,0,1546,0,No
11,10,23,0,3,8,0,0,0,0,0,0,0,1546,0,No
12,12,24,0,3,8,0,0,0,0,0,0,0,1546,0,No
9,10,21,0,0,2,0,0,0,0,0,0,0,79,0,No
13,12,27,0,3,8,0,0,0,0,0,0,0,1546,0,No
13,11,25,0,0,2,0,0,0,0,0,0,0,79,0,No
9,1,26,40,2,9,19,19,-2,0,1,1,1,1102,0,No
13,17,45,0,3,8,0,0,0,0,0,0,0,940,0,No
16,27,61,0,6,7,0,0,0,0,0,0,0,1419,0,No
6,0,6,0,0,1,0,0,0,0,0,0,0,68,0,No
3,0,9,0,0,2,0,0,0,0,0,0,0,554,0,Yes
19,17,44,0,10,9,0,0,0,0,0,0,0,1571,0,No
11,10,23,0,3,8,0,0,0,0,0,0,0,1571,0,No
12,12,24,0,3,8,0,0,0,0,0,0,0,1571,0,No
9,10,21,0,0,2,0,0,0,0,0,0,0,104,0,No
13,12,27,0,3,8,0,0,0,0,0,0,0,1571,0,No
13,11,25,0,0,2,0,0,0,0,0,0,0,104,0,No
9,1,26,0,2,9,0,0,0,0,0,0,0,1127,0,No
13,17,46,2,3,9,1,1,0,0,1,1,8,965,0,No
16,27,62,2,6,8,1,1,0,0,1,1,8,1444,0,No
6,0,6,0,0,1,0,0,0,0,0,0,0,93,0,No
19,17,44,14,10,9,7,7,0,0,1,7,31,1616,0,No
11,10,23,0,3,8,0,0,0,0,0,0,0,1616,0,No
12,12,24,0,3,8,0,0,0,0,0,0,0,1616,0,No
9,10,21,0,0,2,0,0,0,0,0,0,0,149,0,No
13,12,27,2,3,8,1,1,0,0,1,7,31,1616,0,No
13,11,25,0,0,2,0,0,0,0,0,0,0,149,0,No
9,1,26,0,2,9,0,0,0,0,0,0,0,1172,0,No
13,17,46,0,3,9,0,0,0,0,0,0,0,1010,0,No
16,27,62,0,6,8,0,0,0,0,0,0,0,1489,0,No
6,0,6,0,0,1,0,0,0,0,0,0,0,138,0,No
19,17,44,0,10,9,0,0,0,0,0,0,0,1690,0,No
11,10,23,0,3,8,0,0,0,0,0,0,0,1690,0,No
12,12,24,0,3,8,0,0,0,0,0,0,0,1690,0,No
9,10,21,0,0,2,0,0,0,0,0,0,0,223,0,No
13,12,27,0,3,8,0,0,0,0,0,0,0,1690,0,No
13,11,25,0,0,2,0,0,0,0,0,0,0,223,0,No
9,1,26,0,2,9,0,0,0,0,0,0,0,1246,0,No
13,17,46,0,3,9,0,0,0,0,0,0,0,1084,0,No
16,27,62,0,6,8,0,0,0,0,0,0,0,1563,0,No
6,0,6,0,0,1,0,0,0,0,0,0,0,212,0,No
19,17,44,0,10,9,0,0,0,0,0,0,0,1739,0,No
11,10,23,0,3,8,0,0,0,0,0,0,0,1739,0,No
12,12,24,0,3,8,0,0,0,0,0,0,0,1739,0,No
9,10,21,0,0,2,0,0,0,0,0,0,0,272,0,No
13,12,27,0,3,8,0,0,0,0,0,0,0,1739,0,No
13,11,25,0,0,2,0,0,0,0,0,0,0,272,0,No
9,1,26,0,2,9,0,0,0,0,0,0,0,1295,0,No
13,17,46,0,3,9,0,0,0,0,0,0,0,1133,0,No
16,27,62,0,6,8,0,0,0,0,0,0,0,1612,0,No
6,0,6,0,0,1,0,0,0,0,0,0,0,261,0,No
19,17,44,0,10,9,0,0,0,0,0,0,0,1785,0,No
11,10,23,0,3,8,0,0,0,0,0,0,0,1785,0,No
12,12,24,0,3,8,0,0,0,0,0,0,0,1785,0,No
9,10,21,0,0,2,0,0,0,0,0,0,0,318,0,No
13,12,27,0,3,8,0,0,0,0,0,0,0,1785,0,No
13,11,25,0,0,2,0,0,0,0,0,0,0,318,0,No
9,1,26,0,2,9,0,0,0,0,0,0,0,1341,0,No
13,17,46,0,3,9,0,0,0,0,0,0,0,1179,0,Yes
16,27,62,0,6,8,0,0,0,0,0,0,0,1658,0,Yes
6,0,6,0,0,1,0,0,0,0,0,0,0,307,0,No
20,18,45,11,10,10,11,11,11,11,2,7,14,1869,0,No
11,11,23,4,3,9,4,4,4,4,2,7,14,1869,0,No
12,12,24,0,3,8,0,0,0,0,0,0,0,1869,0,No
9,10,21,0,0,2,0,0,0,0,0,0,0,402,0,No
13,14,27,6,3,9,6,6,6,6,2,7,14,1869,0,No
13,12,25,4,0,3,4,4,4,4,2,7,14,402,0,No
9,1,26,20,2,9,13,13,6,6,1,1,1,1425,0,No
16,20,50,38,4,10,29,25,20,20,4,16,27,1263,0,No
19,30,66,34,7,9,29,25,24,24,4,16,27,1742,0,No
6,0,6,0,0,1,0,0,0,0,0,0,0,391,0,No
8,13,14,2005,0,5,1121,151,237,133,97,621,3714,783,0,No
5,7,6,701,0,3,425,105,149,87,60,462,3143,731,0,No
2,0,67,318,0,1,318,318,318,318,1,5,6,23,0,No
6,7,33,569,0,3,391,94,213,94,46,417,2824,480,0,No
8,13,14,0,0,5,0,0,0,0,0,0,0,806,0,No
5,7,6,0,0,3,0,0,0,0,0,0,0,754,0,No
2,0,67,0,0,1,0,0,0,0,0,0,0,46,0,No
6,7,33,0,0,3,0,0,0,0,0,0,0,503,0,No
8,13,14,4,0,5,2,2,0,0,1,1,4,838,0,No
5,7,6,0,0,3,0,0,0,0,0,0,0,786,0,No
1,2,21,0,0,6,0,0,0,0,0,0,0,834,0,No
17,3,45,0,0,3,0,0,0,0,0,0,0,866,0,No
2,0,67,0,0,1,0,0,0,0,0,0,0,78,0,No
13,19,38,0,0,5,0,0,0,0,0,0,0,232,0,Yes
6,7,33,0,0,3,0,0,0,0,0,0,0,535,0,No
8,13,14,0,0,5,0,0,0,0,0,0,0,840,0,No
5,7,6,0,0,3,0,0,0,0,0,0,0,788,0,No
2,0,67,0,0,1,0,0,0,0,0,0,0,80,0,No
13,19,38,88,1,5,38,38,-12,0,1,8,14,234,0,No
6,7,33,0,0,3,0,0,0,0,0,0,0,537,0,No
8,13,14,0,0,5,0,0,0,0,0,0,0,909,0,No
5,7,6,0,0,3,0,0,0,0,0,0,0,857,0,No
1,2,21,31,1,6,17,17,3,3,1,6,17,905,0,No
17,3,45,83,1,3,77,77,71,71,2,8,8,937,0,Yes
2,0,67,0,0,1,0,0,0,0,0,0,0,149,0,No
13,19,38,0,1,5,0,0,0,0,0,0,0,303,0,No
6,7,33,0,0,3,0,0,0,0,0,0,0,606,0,No
8,13,14,0,0,5,0,0,0,0,0,0,0,953,0,Yes
5,7,6,0,0,3,0,0,0,0,0,0,0,901,0,Yes
1,2,21,0,1,6,0,0,0,0,0,0,0,949,0,No
17,4,48,8,2,4,7,7,6,6,1,3,3,981,0,No
2,0,67,0,0,1,0,0,0,0,0,0,0,193,0,No
13,19,38,0,1,5,0,0,0,0,0,0,0,347,0,No
6,7,33,0,0,3,0,0,0,0,0,0,0,650,0,No
8,14,14,37,0,5,19,19,1,1,1,9,92,988,0,Yes
5,8,6,34,0,3,17,17,0,0,1,9,92,936,0,No
1,2,21,0,1,6,0,0,0,0,0,0,0,984,0,No
17,4,48,0,2,4,0,0,0,0,0,0,0,1016,0,Yes
2,0,67,0,0,1,0,0,0,0,0,0,0,228,0,No
13,19,38,0,1,5,0,0,0,0,0,0,0,382,0,Yes
6,7,33,0,0,3,0,0,0,0,0,0,0,685,0,Yes
8,14,14,0,0,5,0,0,0,0,0,0,0,1015,0,No
5,8,6,0,0,3,0,0,0,0,0,0,0,963,0,No
1,2,21,0,1,6,0,0,0,0,0,0,0,1011,0,No
17,4,48,0,2,4,0,0,0,0,0,0,0,1043,0,No
2,0,67,0,0,1,0,0,0,0,0,0,0,255,0,No
13,19,38,0,1,5,0,0,0,0,0,0,0,409,0,Yes
6,7,33,0,0,3,0,0,0,0,0,0,0,712,0,No
2,0,67,0,0,2,0,0,0,0,0,0,0,265,0,No
16,21,40,2,1,7,1,1,0,0,1,7,13,419,0,Yes
18,30,53,0,1,7,0,0,0,0,0,0,0,898,0,Yes
8,14,14,0,0,5,0,0,0,0,0,0,0,1038,0,No
5,8,6,0,0,3,0,0,0,0,0,0,0,986,0,No
1,2,21,0,1,6,0,0,0,0,0,0,0,1034,0,No
17,4,48,0,2,4,0,0,0,0,0,0,0,1066,0,No
2,0,67,0,0,1,0,0,0,0,0,0,0,278,0,No
13,19,38,0,1,5,0,0,0,0,0,0,0,432,0,Yes
6,7,33,0,0,3,0,0,0,0,0,0,0,735,0,No
2,0,67,0,0,2,0,0,0,0,0,0,0,289,0,No
16,21,40,0,1,7,0,0,0,0,0,0,0,443,0,Yes
18,30,53,0,1,7,0,0,0,0,0,0,0,922,0,Yes
9,2,23,18,1,8,10,5,2,1,4,13,77,648,0,No
2,0,67,0,0,2,0,0,0,0,0,0,0,332,0,No
16,21,40,0,1,7,0,0,0,0,0,0,0,486,0,Yes
18,30,53,0,1,7,0,0,0,0,0,0,0,965,0,Yes
2,0,67,0,0,2,0,0,0,0,0,0,0,363,0,No
16,21,40,0,1,7,0,0,0,0,0,0,0,517,0,Yes
18,30,53,2,2,7,1,1,0,0,1,3,7,996,0,Yes
2,0,67,0,0,2,0,0,0,0,0,0,0,440,0,No
16,21,40,0,1,7,0,0,0,0,0,0,0,594,0,Yes
18,30,53,0,2,7,0,0,0,0,0,0,0,1073,0,Yes
11,14,22,50,5,7,38,35,26,24,8,49,94,751,0,Yes
2,0,67,0,0,2,0,0,0,0,0,0,0,502,0,No
17,18,53,118,2,8,50,35,-18,9,13,67,152,656,0,Yes
11,14,22,6,7,7,3,2,0,1,3,7,51,837,0,No
23,19,49,246,4,7,229,216,212,212,6,21,90,847,0,No
2,0,67,0,0,2,0,0,0,0,0,0,0,588,0,No
17,18,53,0,2,8,0,0,0,0,0,0,0,742,0,No
11,14,22,0,7,7,0,0,0,0,0,0,0,885,0,No
23,19,49,0,4,7,0,0,0,0,0,0,0,895,0,No
2,0,67,0,0,2,0,0,0,0,0,0,0,636,0,No
17,18,53,0,2,8,0,0,0,0,0,0,0,790,0,No
11,14,22,0,7,7,0,0,0,0,0,0,0,968,0,No
23,19,49,0,4,7,0,0,0,0,0,0,0,978,0,No
2,0,67,0,0,2,0,0,0,0,0,0,0,719,0,No
17,18,53,0,2,8,0,0,0,0,0,0,0,873,0,No
23,20,49,0,5,8,0,0,0,0,0,0,0,1045,0,No
12,1,47,0,0,7,0,0,0,0,0,0,0,1080,0,No
23,20,49,0,5,8,0,0,0,0,0,0,0,1070,0,No
12,1,47,0,0,7,0,0,0,0,0,0,0,1105,0,No
23,20,49,0,5,8,0,0,0,0,0,0,0,1115,0,No
12,1,47,2,0,8,1,1,0,0,1,1,1,1150,0,No
23,20,49,0,5,8,0,0,0,0,0,0,0,1189,0,No
12,1,47,0,0,8,0,0,0,0,0,0,0,1224,0,No
23,20,49,0,5,8,0,0,0,0,0,0,0,1238,0,No
12,1,47,0,0,8,0,0,0,0,0,0,0,1273,0,No
23,20,49,0,5,8,0,0,0,0,0,0,0,1284,0,No
12,1,47,0,0,8,0,0,0,0,0,0,0,1319,0,No
23,20,49,0,5,8,0,0,0,0,0,0,0,1368,0,No
12,1,47,0,0,8,0,0,0,0,0,0,0,1403,0,No
24,14,37,1223,0,3,853,334,483,334,47,417,2982,282,0,No
2,0,14,158,0,3,135,113,112,113,44,432,2795,689,0,No
1,2,20,774,0,6,483,92,192,92,90,604,2838,779,0,No
29,25,61,5653,0,5,3179,176,705,160,246,1449,4992,789,0,Yes
14,35,142,3975,0,4,2365,348,755,248,231,1367,4934,750,0,Yes
24,14,37,0,0,3,0,0,0,0,0,0,0,305,0,No
2,0,14,0,0,3,0,0,0,0,0,0,0,712,0,No
1,2,20,0,0,6,0,0,0,0,0,0,0,802,0,No
29,25,61,0,0,5,0,0,0,0,0,0,0,812,0,Yes
14,35,142,12,1,5,6,6,0,0,1,2,2,773,0,Yes
24,14,37,0,0,3,0,0,0,0,0,0,0,337,0,No
2,0,14,0,0,3,0,0,0,0,0,0,0,744,0,No
29,25,61,0,0,5,0,0,0,0,0,0,0,844,0,Yes
14,35,142,0,1,5,0,0,0,0,0,0,0,805,0,Yes
24,14,37,0,0,3,0,0,0,0,0,0,0,339,0,No
2,0,14,0,0,3,0,0,0,0,0,0,0,746,0,No
1,2,20,0,0,6,0,0,0,0,0,0,0,836,0,Yes
29,25,61,10,1,5,5,5,0,0,1,8,14,846,0,Yes
14,35,142,0,1,5,0,0,0,0,0,0,0,807,0,No
24,14,37,0,0,3,0,0,0,0,0,0,0,408,0,No
2,0,14,0,0,3,0,0,0,0,0,0,0,815,0,No
30,25,62,44,2,5,28,27,12,12,5,13,17,915,0,Yes
14,35,142,0,1,5,0,0,0,0,0,0,0,876,0,No
24,14,37,0,0,3,0,0,0,0,0,0,0,452,0,Yes
2,0,14,0,0,3,0,0,0,0,0,0,0,859,0,No
30,25,62,9,3,5,5,5,1,1,1,7,10,959,0,No
14,35,142,0,1,5,0,0,0,0,0,0,0,920,0,Yes
24,14,37,36,0,3,18,16,0,0,4,16,107,487,0,No
2,0,14,0,0,3,0,0,0,0,0,0,0,894,0,No
30,25,62,0,3,5,0,0,0,0,0,0,0,994,0,Yes
14,35,142,0,1,5,0,0,0,0,0,0,0,955,0,No
24,14,37,0,0,3,0,0,0,0,0,0,0,514,0,No
2,0,14,0,0,3,0,0,0,0,0,0,0,921,0,No
30,25,62,0,3,5,0,0,0,0,0,0,0,1021,0,Yes
14,35,142,0,1,5,0,0,0,0,0,0,0,982,0,No
5,0,17,0,0,7,0,0,0,0,0,0,0,1025,0,Yes
24,14,37,0,1,7,0,0,0,0,0,0,0,524,0,No
14,35,128,0,3,7,0,0,0,0,0,0,0,398,0,Yes
2,0,14,0,0,3,0,0,0,0,0,0,0,931,0,No
10,1,41,205,0,7,163,159,121,122,8,30,44,559,0,No
9,26,97,7,2,4,4,4,1,1,1,7,13,399,0,No
24,14,37,0,0,3,0,0,0,0,0,0,0,537,0,No
2,0,14,0,0,3,0,0,0,0,0,0,0,944,0,No
30,25,62,0,3,5,0,0,0,0,0,0,0,1044,0,Yes
14,35,142,0,1,5,0,0,0,0,0,0,0,1005,0,No
24,14,37,0,1,7,0,0,0,0,0,0,0,548,0,No
14,35,132,0,4,7,0,0,0,0,0,0,0,422,0,Yes
2,0,14,0,0,3,0,0,0,0,0,0,0,955,0,No
10,1,41,0,0,7,0,0,0,0,0,0,0,583,0,No
9,26,97,0,2,4,0,0,0,0,0,0,0,423,0,No
24,13,37,22,1,7,9,4,-4,1,7,20,123,591,0,No
14,36,132,4,4,8,2,2,0,0,1,3,4,465,0,Yes
2,0,14,0,0,3,0,0,0,0,0,0,0,998,0,No
10,1,41,0,0,7,0,0,0,0,0,0,0,626,0,No
9,26,97,3,2,5,1,1,-1,0,1,3,4,466,0,Yes
24,13,37,0,1,7,0,0,0,0,0,0,0,622,0,No
14,36,132,0,4,8,0,0,0,0,0,0,0,496,0,Yes
2,0,14,0,0,3,0,0,0,0,0,0,0,1029,0,No
13,16,34,51,3,8,27,20,3,15,2,5,9,715,0,No
10,1,41,0,0,7,0,0,0,0,0,0,0,657,0,No
24,13,37,0,1,7,0,0,0,0,0,0,0,699,0,No
14,36,132,6,5,8,5,5,4,4,2,2,2,573,0,Yes
2,0,14,0,0,3,0,0,0,0,0,0,0,1106,0,No
13,16,34,0,3,8,0,0,0,0,0,0,0,792,0,No
10,1,41,0,0,7,0,0,0,0,0,0,0,734,0,No
24,13,37,0,1,7,0,0,0,0,0,0,0,761,0,Yes
14,37,134,53,6,8,32,28,11,17,2,12,30,635,0,Yes
2,0,14,0,0,3,0,0,0,0,0,0,0,1168,0,No
10,1,41,0,0,7,0,0,0,0,0,0,0,796,0,No
24,13,37,36,3,7,18,11,0,4,3,7,51,847,0,No
14,37,134,0,6,8,0,0,0,0,0,0,0,721,0,Yes
2,0,14,0,0,3,0,0,0,0,0,0,0,1254,0,No
10,1,41,0,0,7,0,0,0,0,0,0,0,882,0,No
24,13,37,0,3,7,0,0,0,0,0,0,0,895,0,No
14,37,134,2,6,8,1,1,0,0,1,9,15,769,0,Yes
2,0,14,0,0,3,0,0,0,0,0,0,0,1302,0,No
10,1,41,0,0,7,0,0,0,0,0,0,0,930,0,No
24,13,37,0,3,7,0,0,0,0,0,0,0,978,0,No
14,38,140,31,7,9,25,23,19,19,5,21,42,852,0,No
2,0,14,0,0,3,0,0,0,0,0,0,0,1385,0,No
10,1,41,2,0,7,1,1,0,0,1,16,36,1013,0,No
15,45,151,5,9,9,2,2,-1,0,5,15,18,919,0,No
11,25,65,25,4,6,2,2,-21,0,5,15,18,685,0,No
17,63,206,0,7,8,0,0,0,0,0,0,0,1513,0,Yes
37,63,193,14,5,6,14,14,14,14,5,15,18,1513,0,No
2,5,7,39,0,1,23,8,7,4,6,23,40,68,0,No
15,45,151,0,9,9,0,0,0,0,0,0,0,944,0,No
11,25,65,0,4,6,0,0,0,0,0,0,0,710,0,No
17,62,206,8,7,8,2,2,-4,0,3,26,61,1538,0,Yes
37,63,193,0,5,6,0,0,0,0,0,0,0,1538,0,No
2,5,7,0,0,1,0,0,0,0,0,0,0,93,0,No
3,1,15,38,0,2,30,30,22,22,1,4,11,92,0,No
15,45,151,0,9,9,0,0,0,0,0,0,0,989,0,No
11,25,66,10,4,6,7,7,4,4,1,1,1,755,0,No
17,62,206,0,7,8,0,0,0,0,0,0,0,1583,0,Yes
37,63,193,0,5,6,0,0,0,0,0,0,0,1583,0,No
2,5,7,0,0,1,0,0,0,0,0,0,0,138,0,No
3,1,15,0,0,2,0,0,0,0,0,0,0,137,0,No
15,45,151,4,9,9,2,2,0,0,1,6,8,1063,0,No
11,25,66,0,4,6,0,0,0,0,0,0,0,829,0,No
18,63,213,27,8,8,26,25,25,25,4,6,11,1657,0,Yes
37,63,193,0,5,6,0,0,0,0,0,0,0,1657,0,No
2,5,7,0,0,1,0,0,0,0,0,0,0,212,0,No
3,1,15,0,0,2,0,0,0,0,0,0,0,211,0,No
15,45,151,0,9,9,0,0,0,0,0,0,0,1112,0,Yes
19,63,208,77,9,8,42,42,7,7,1,2,2,1706,0,Yes
37,63,193,0,5,6,0,0,0,0,0,0,0,1706,0,Yes
2,5,8,8,0,2,6,6,4,4,2,6,6,261,0,No
3,1,16,16,0,3,13,10,10,9,3,7,7,260,0,No
15,45,151,4,10,9,2,2,0,0,1,3,3,1158,0,No
19,63,208,0,9,8,0,0,0,0,0,0,0,1752,0,Yes
36,62,191,14,6,6,0,0,-14,0,1,3,3,1752,0,No
2,5,8,0,0,2,0,0,0,0,0,0,0,307,0,No
3,1,16,0,0,3,0,0,0,0,0,0,0,306,0,No
15,45,151,0,10,9,0,0,0,0,0,0,0,1242,0,No
19,63,208,2,10,8,1,1,0,0,2,8,13,1836,0,Yes
36,62,191,0,6,6,0,0,0,0,0,0,0,1836,0,No
2,5,8,0,0,2,0,0,0,0,0,0,0,391,0,No
3,1,16,0,0,3,0,0,0,0,0,0,0,390,0,No
12,35,107,4023,0,5,2408,364,793,362,150,866,3773,383,0,No
12,35,107,0,0,5,0,0,0,0,0,0,0,406,0,No
12,38,109,0,0,5,0,0,0,0,0,0,0,438,0,No
12,35,107,0,0,5,0,0,0,0,0,0,0,440,0,Yes
12,38,109,35,1,5,28,28,21,21,2,8,8,509,0,No
12,38,109,0,1,5,0,0,0,0,0,0,0,553,0,Yes
14,39,117,156,2,5,98,96,40,39,2,10,12,588,0,No
14,39,117,0,2,5,0,0,0,0,0,0,0,615,0,No
11,9,15,0,1,7,0,0,0,0,0,0,0,1024,0,No
39,32,65,0,2,8,0,0,0,0,0,0,0,1031,0,Yes
14,38,152,0,2,7,0,0,0,0,0,0,0,992,0,No
3,0,38,197,0,1,197,197,197,197,1,7,13,1,0,No
14,39,117,0,2,5,0,0,0,0,0,0,0,638,0,No
5,0,17,0,1,7,0,0,0,0,0,0,0,1049,0,Yes
11,9,15,0,1,7,0,0,0,0,0,0,0,1048,0,Yes
39,32,67,27,3,8,15,15,3,3,2,5,5,1055,0,Yes
14,38,152,0,2,7,0,0,0,0,0,0,0,1016,0,No
3,0,38,0,0,1,0,0,0,0,0,0,0,25,0,No
5,0,17,2,2,7,1,1,0,0,2,2,9,1092,0,No
11,10,15,20,2,7,11,9,2,1,3,6,42,1091,0,No
39,32,67,0,3,8,0,0,0,0,0,0,0,1098,0,Yes
14,38,152,0,2,7,0,0,0,0,0,0,0,1059,0,No
3,0,38,0,0,1,0,0,0,0,0,0,0,68,0,No
5,0,17,0,2,7,0,0,0,0,0,0,0,1123,0,No
11,10,15,0,2,7,0,0,0,0,0,0,0,1122,0,No
39,32,67,19,4,8,15,15,11,11,2,4,4,1129,0,Yes
14,38,152,0,2,7,0,0,0,0,0,0,0,1090,0,No
3,0,38,0,0,1,0,0,0,0,0,0,0,99,0,No
9,27,98,4,3,5,3,3,2,2,1,1,1,497,0,No
5,0,17,0,2,7,0,0,0,0,0,0,0,1200,0,No
11,10,15,0,2,7,0,0,0,0,0,0,0,1199,0,No
39,33,70,106,4,8,63,55,20,47,2,5,6,1206,0,Yes
14,38,152,0,2,7,0,0,0,0,0,0,0,1167,0,Yes
3,0,38,0,0,1,0,0,0,0,0,0,0,176,0,No
9,27,98,0,3,5,0,0,0,0,0,0,0,574,0,Yes
5,0,17,0,2,7,0,0,0,0,0,0,0,1262,0,No
11,10,15,0,2,7,0,0,0,0,0,0,0,1261,0,Yes
13,38,150,28,3,7,4,2,-20,0,5,28,48,1229,0,Yes
3,0,38,0,0,1,0,0,0,0,0,0,0,238,0,No
5,0,17,0,2,7,0,0,0,0,0,0,0,1348,0,No
11,10,15,64,4,7,32,17,0,2,3,7,51,1347,0,Yes
13,38,150,2,4,7,1,1,0,0,2,4,6,1315,0,Yes
3,0,38,0,0,1,0,0,0,0,0,0,0,324,0,No
9,29,105,25,6,6,18,12,11,8,4,12,18,722,0,Yes
5,0,17,0,2,7,0,0,0,0,0,0,0,1396,0,No
11,10,15,2,5,7,1,1,0,0,3,3,3,1395,0,No
13,38,150,2,4,7,1,1,0,0,1,9,15,1363,0,Yes
3,0,38,0,0,1,0,0,0,0,0,0,0,372,0,No
9,30,105,1,6,6,1,1,1,1,1,9,15,770,0,Yes
5,0,17,0,2,7,0,0,0,0,0,0,0,1479,0,No
11,10,15,0,5,7,0,0,0,0,0,0,0,1478,0,No
13,38,150,2,4,7,1,1,0,0,1,16,36,1446,0,Yes
3,0,38,0,0,1,0,0,0,0,0,0,0,455,0,No
9,30,105,2,6,6,1,1,0,0,1,16,36,853,0,No
5,0,18,402,2,7,201,201,0,0,5,19,136,1546,0,No
12,5,19,8,0,3,7,7,6,6,5,15,18,665,0,No
9,3,9,0,0,7,0,0,0,0,0,0,0,1021,0,No
3,0,38,0,0,1,0,0,0,0,0,0,0,522,0,No
2,1,10,0,0,1,0,0,0,0,0,0,0,67,0,No
5,0,18,0,2,7,0,0,0,0,0,0,0,1571,0,No
12,5,19,0,0,3,0,0,0,0,0,0,0,690,0,No
9,3,9,0,0,7,0,0,0,0,0,0,0,1046,0,No
3,0,38,0,0,1,0,0,0,0,0,0,0,547,0,No
5,0,18,0,2,7,0,0,0,0,0,0,0,1616,0,No
12,5,19,0,0,3,0,0,0,0,0,0,0,735,0,No
9,3,9,0,0,7,0,0,0,0,0,0,0,1091,0,No
3,0,38,0,0,1,0,0,0,0,0,0,0,592,0,No
5,0,18,0,2,7,0,0,0,0,0,0,0,1690,0,No
12,5,19,0,0,3,0,0,0,0,0,0,0,809,0,No
9,3,9,0,0,7,0,0,0,0,0,0,0,1165,0,No
3,0,38,0,0,1,0,0,0,0,0,0,0,666,0,No
5,0,18,0,2,7,0,0,0,0,0,0,0,1739,0,No
12,5,19,0,0,3,0,0,0,0,0,0,0,858,0,No
9,3,9,0,0,7,0,0,0,0,0,0,0,1214,0,No
3,0,38,2,0,2,1,1,0,0,1,1,1,715,0,No
5,0,18,0,2,7,0,0,0,0,0,0,0,1785,0,No
12,5,19,0,0,3,0,0,0,0,0,0,0,904,0,No
9,2,9,5,0,2,2,2,-1,0,2,7,17,482,0,No
3,0,38,0,0,2,0,0,0,0,0,0,0,761,0,No
5,0,18,0,2,7,0,0,0,0,0,0,0,1869,0,No
12,5,19,0,0,3,0,0,0,0,0,0,0,988,0,No
9,2,9,0,0,2,0,0,0,0,0,0,0,566,0,No
3,0,38,0,0,2,0,0,0,0,0,0,0,845,0,No
11,4,15,1410,0,4,841,141,272,116,87,560,3286,782,0,No
18,10,71,1947,0,6,1256,232,565,232,149,865,3691,695,0,No
11,4,15,0,0,4,0,0,0,0,0,0,0,805,0,No
18,10,71,0,0,6,0,0,0,0,0,0,0,718,0,No
11,4,15,2,0,5,1,1,0,0,1,2,25,837,0,No
18,10,71,0,0,6,0,0,0,0,0,0,0,750,0,No
11,4,15,0,0,5,0,0,0,0,0,0,0,839,0,No
18,10,71,0,0,6,0,0,0,0,0,0,0,752,0,No
11,4,15,0,0,5,0,0,0,0,0,0,0,908,0,No
18,10,71,0,0,6,0,0,0,0,0,0,0,821,0,No
11,4,15,0,0,5,0,0,0,0,0,0,0,952,0,Yes
11,5,15,13,0,5,7,7,1,1,1,9,92,987,0,No
11,5,15,9,0,5,3,3,-3,0,1,3,3,1014,0,No
10,23,37,312,0,1,306,304,300,304,2,15,28,2,0,No
10,21,61,7,1,5,2,2,-3,0,1,2,3,164,0,No
11,5,15,0,0,5,0,0,0,0,0,0,0,1037,0,No
10,23,37,0,0,1,0,0,0,0,0,0,0,26,0,No
10,21,61,0,1,5,0,0,0,0,0,0,0,188,0,No
10,23,37,0,0,1,0,0,0,0,0,0,0,69,0,No
10,21,61,0,1,5,0,0,0,0,0,0,0,231,0,No
10,23,37,0,0,1,0,0,0,0,0,0,0,100,0,No
10,21,61,0,1,5,0,0,0,0,0,0,0,262,0,No
10,23,37,0,0,1,0,0,0,0,0,0,0,177,0,No
10,21,62,28,1,6,18,9,8,7,5,10,14,339,0,Yes
10,23,37,0,0,1,0,0,0,0,0,0,0,239,0,No
9,28,103,61,4,6,35,16,9,12,8,39,77,636,0,Yes
10,23,37,0,0,1,0,0,0,0,0,0,0,325,0,No
10,23,37,0,0,1,0,0,0,0,0,0,0,373,0,No
9,7,36,11,2,4,8,8,5,5,1,9,15,1093,0,No
10,23,37,2,0,1,1,1,0,0,1,16,36,456,0,No
9,7,36,4,2,4,2,2,0,0,1,16,36,1176,0,No
20,17,116,0,5,7,0,0,0,0,0,0,0,1585,0,No
9,7,44,2,3,5,1,1,0,0,5,10,17,1243,0,No
20,17,116,0,5,7,0,0,0,0,0,0,0,1610,0,No
9,7,44,0,3,5,0,0,0,0,0,0,0,1268,0,No
20,17,116,0,5,7,0,0,0,0,0,0,0,1655,0,No
9,7,44,0,3,5,0,0,0,0,0,0,0,1313,0,Yes
20,17,116,0,5,7,0,0,0,0,0,0,0,1729,0,No
9,7,44,4,4,5,2,2,0,0,1,2,2,1387,0,No
20,17,116,0,5,7,0,0,0,0,0,0,0,1778,0,No
10,25,65,48,4,6,15,15,-18,0,1,1,1,878,0,No
9,7,44,0,4,5,0,0,0,0,0,0,0,1436,0,No
20,17,116,0,5,7,0,0,0,0,0,0,0,1824,0,No
10,25,65,0,4,6,0,0,0,0,0,0,0,924,0,No
9,7,44,0,4,5,0,0,0,0,0,0,0,1482,0,No
20,17,116,6,5,8,2,2,-2,0,1,2,2,1908,0,Yes
10,25,65,0,4,6,0,0,0,0,0,0,0,1008,0,No
9,7,44,0,4,5,0,0,0,0,0,0,0,1566,0,No
15,13,87,2081,0,6,1315,356,549,354,117,750,3640,822,0,No
15,13,87,0,0,6,0,0,0,0,0,0,0,845,0,No
15,13,87,2,0,6,1,1,0,0,3,14,30,877,0,No
15,13,87,0,0,6,0,0,0,0,0,0,0,879,0,No
15,13,87,0,0,6,0,0,0,0,0,0,0,948,0,No
15,13,87,0,0,6,0,0,0,0,0,0,0,992,0,No
15,13,87,0,0,6,0,0,0,0,0,0,0,1027,0,No
15,13,87,0,0,6,0,0,0,0,0,0,0,1054,0,No
16,16,105,0,0,7,0,0,0,0,0,0,0,1064,0,Yes
7,5,37,0,1,4,0,0,0,0,0,0,0,722,0,No
16,16,106,0,0,7,0,0,0,0,0,0,0,1088,0,Yes
7,5,37,0,1,4,0,0,0,0,0,0,0,746,0,No
16,16,107,2,0,7,1,1,0,0,1,2,2,1131,0,Yes
7,5,37,0,1,4,0,0,0,0,0,0,0,789,0,No
16,16,111,33,1,7,27,27,21,21,1,2,2,1162,0,Yes
7,5,37,0,1,4,0,0,0,0,0,0,0,820,0,No
16,16,111,4,1,7,2,2,0,0,1,1,1,1239,0,Yes
7,5,37,0,1,4,0,0,0,0,0,0,0,897,0,Yes
16,16,112,44,3,7,25,17,6,8,5,32,69,1301,0,Yes
10,25,66,96,3,6,79,39,62,39,8,54,110,401,0,No
9,6,36,101,2,4,51,51,1,1,1,9,19,959,0,No
16,16,112,0,3,7,0,0,0,0,0,0,0,1387,0,No
10,25,66,0,3,6,0,0,0,0,0,0,0,487,0,No
9,6,36,0,2,4,0,0,0,0,0,0,0,1045,0,No
16,16,112,0,3,7,0,0,0,0,0,0,0,1435,0,No
10,25,66,0,3,6,0,0,0,0,0,0,0,535,0,No
16,16,112,0,3,7,0,0,0,0,0,0,0,1518,0,No
10,25,66,2,3,6,1,1,0,0,1,16,36,618,0,No
20,16,59,0,1,8,0,0,0,0,0,0,0,954,0,No
35,19,106,26,5,8,14,8,2,2,6,27,46,1059,0,Yes
7,0,16,105,0,1,89,58,73,47,3,12,20,68,0,No
20,16,59,0,1,8,0,0,0,0,0,0,0,979,0,No
37,21,109,43,5,8,36,33,29,26,7,36,82,1084,0,Yes
7,0,16,0,0,1,0,0,0,0,0,0,0,93,0,No
20,16,59,2,1,8,1,1,0,0,1,7,31,1024,0,No
37,21,109,42,6,8,25,18,8,4,5,5,6,1129,0,Yes
7,0,16,0,0,1,0,0,0,0,0,0,0,138,0,No
20,16,59,0,1,8,0,0,0,0,0,0,0,1098,0,No
37,21,113,71,7,8,51,33,31,30,2,7,8,1203,0,No
7,0,16,0,0,1,0,0,0,0,0,0,0,212,0,No
20,16,59,0,1,8,0,0,0,0,0,0,0,1147,0,No
37,22,115,11,7,9,11,11,11,11,1,3,4,1252,0,No
7,0,16,0,0,1,0,0,0,0,0,0,0,261,0,No
20,16,59,0,1,8,0,0,0,0,0,0,0,1193,0,No
37,22,115,0,7,9,0,0,0,0,0,0,0,1298,0,Yes
7,0,16,0,0,1,0,0,0,0,0,0,0,307,0,No
20,16,59,0,1,8,0,0,0,0,0,0,0,1277,0,No
37,22,115,58,8,9,30,24,2,2,6,24,37,1382,0,Yes
7,0,16,0,0,1,0,0,0,0,0,0,0,391,0,No
19,29,97,7177,0,6,4015,284,853,246,273,1490,4906,760,0,Yes
25,22,50,0,6,8,0,0,0,0,0,0,0,1546,0,No
9,2,9,0,0,2,0,0,0,0,0,0,0,243,0,No
15,23,63,0,0,1,0,0,0,0,0,0,0,73,0,No
9,2,9,0,0,2,0,0,0,0,0,0,0,268,0,No
15,23,63,0,0,1,0,0,0,0,0,0,0,98,0,Yes
9,2,9,0,0,2,0,0,0,0,0,0,0,313,0,No
15,23,63,60,1,2,30,30,0,0,1,2,4,143,0,No
9,2,9,0,0,2,0,0,0,0,0,0,0,387,0,No
15,23,63,0,1,2,0,0,0,0,0,0,0,217,0,No
9,2,9,0,0,2,0,0,0,0,0,0,0,436,0,No
28,10,34,2020,0,4,1263,328,506,296,103,653,3762,783,0,No
24,10,82,1579,0,4,1118,303,657,293,74,574,3169,296,0,No
28,10,34,0,0,4,0,0,0,0,0,0,0,806,0,No
19,28,100,0,0,6,0,0,0,0,0,0,0,783,0,Yes
24,10,82,0,0,4,0,0,0,0,0,0,0,319,0,No
28,10,34,0,0,4,0,0,0,0,0,0,0,838,0,No
19,28,100,142,1,6,76,75,10,10,4,17,34,815,0,No
25,12,83,0,0,4,0,0,0,0,0,0,0,351,0,Yes
28,10,34,0,0,4,0,0,0,0,0,0,0,840,0,No
19,28,100,0,1,6,0,0,0,0,0,0,0,817,0,No
24,10,82,0,0,4,0,0,0,0,0,0,0,353,0,Yes
28,10,34,0,0,4,0,0,0,0,0,0,0,909,0,No
19,28,100,0,1,6,0,0,0,0,0,0,0,886,0,Yes
25,12,84,66,2,4,41,28,16,9,3,10,21,422,0,Yes
28,10,34,0,0,4,0,0,0,0,0,0,0,953,0,Yes
19,28,106,379,5,6,208,105,37,83,7,26,36,930,0,Yes
25,12,84,14,3,4,8,8,2,2,1,7,10,466,0,Yes
28,11,34,39,0,5,17,17,-5,0,2,11,94,988,0,Yes
25,12,86,36,4,4,20,19,4,4,5,11,19,501,0,No
28,11,34,0,0,5,0,0,0,0,0,0,0,1015,0,Yes
25,12,86,0,4,4,0,0,0,0,0,0,0,528,0,No
28,11,34,0,0,5,0,0,0,0,0,0,0,1038,0,Yes
15,13,88,31,0,6,15,15,-1,0,1,2,3,1077,0,No
25,12,86,0,4,4,0,0,0,0,0,0,0,551,0,No
35,13,43,345,6,7,173,62,1,6,7,23,92,1348,0,No
35,13,43,0,6,7,0,0,0,0,0,0,0,1396,0,No
16,23,66,21,1,3,14,9,7,6,3,5,10,266,0,No
25,15,80,44,5,7,5,5,-34,4,6,21,29,775,0,No
25,15,80,0,5,7,0,0,0,0,0,0,0,861,0,No
25,15,80,0,5,7,0,0,0,0,0,0,0,909,0,No
25,15,80,2,5,7,1,1,0,0,1,16,36,992,0,Yes
19,31,111,85,7,6,60,31,35,27,4,12,18,965,0,No
19,31,111,0,7,6,0,0,0,0,0,0,0,992,0,No
35,14,43,13,3,6,6,6,-1,0,7,26,39,1025,0,Yes
27,51,131,0,5,9,0,0,0,0,0,0,0,625,0,Yes
26,15,82,0,3,7,0,0,0,0,0,0,0,538,0,Yes
19,31,111,0,7,6,0,0,0,0,0,0,0,1015,0,No
35,14,43,0,3,6,0,0,0,0,0,0,0,1049,0,Yes
27,51,130,21,5,9,12,10,3,2,2,2,2,649,0,Yes
26,15,82,4,4,7,2,2,0,0,2,5,5,562,0,No
35,13,43,26,3,7,11,6,-4,1,7,20,123,1092,0,Yes
27,51,131,2,5,9,1,1,0,0,1,2,2,692,0,Yes
26,15,82,0,4,7,0,0,0,0,0,0,0,605,0,No
35,13,43,0,3,7,0,0,0,0,0,0,0,1123,0,Yes
27,51,131,2,5,9,1,1,0,0,1,1,1,723,0,Yes
26,15,82,0,4,7,0,0,0,0,0,0,0,636,0,No
35,13,43,0,3,7,0,0,0,0,0,0,0,1200,0,Yes
27,51,131,0,5,9,0,0,0,0,0,0,0,800,0,Yes
26,15,82,2,4,7,2,2,2,2,1,1,1,713,0,Yes
35,13,43,0,3,7,0,0,0,0,0,0,0,1262,0,Yes
27,55,133,242,8,9,177,111,112,89,8,45,91,862,0,Yes
27,55,133,4,9,9,2,2,0,0,2,8,14,948,0,Yes
27,55,133,0,9,9,0,0,0,0,0,0,0,996,0,Yes
38,22,58,171,7,8,81,39,-9,19,6,30,101,1616,0,No
38,22,58,0,7,8,0,0,0,0,0,0,0,1690,0,No
38,22,58,0,7,8,0,0,0,0,0,0,0,1739,0,No
38,22,58,0,7,8,0,0,0,0,0,0,0,1785,0,No
38,22,58,0,7,8,0,0,0,0,0,0,0,1869,0,No
36,18,54,2939,0,4,1822,350,705,258,119,759,4008,783,0,No
8,3,93,893,0,6,716,274,539,274,43,356,2640,206,0,No
36,18,54,0,0,4,0,0,0,0,0,0,0,806,0,No
8,3,93,0,0,6,0,0,0,0,0,0,0,229,0,No
36,18,54,4,0,5,2,2,0,0,1,2,25,838,0,No
8,3,93,0,0,6,0,0,0,0,0,0,0,261,0,No
36,18,54,0,0,5,0,0,0,0,0,0,0,840,0,No
8,3,93,0,0,6,0,0,0,0,0,0,0,263,0,No
36,18,54,0,0,5,0,0,0,0,0,0,0,909,0,No
8,3,93,0,0,6,0,0,0,0,0,0,0,332,0,No
36,18,54,0,0,5,0,0,0,0,0,0,0,953,0,Yes
8,3,93,0,0,6,0,0,0,0,0,0,0,376,0,Yes
36,19,54,50,0,5,25,25,0,0,1,9,92,988,0,No
8,3,93,0,0,6,0,0,0,0,0,0,0,411,0,Yes
36,19,54,0,0,5,0,0,0,0,0,0,0,1015,0,No
8,3,93,0,0,6,0,0,0,0,0,0,0,438,0,No
36,19,54,0,1,7,0,0,0,0,0,0,0,1025,0,No
36,19,54,0,0,5,0,0,0,0,0,0,0,1038,0,No
8,3,93,0,0,6,0,0,0,0,0,0,0,461,0,No
36,19,54,0,1,7,0,0,0,0,0,0,0,1049,0,No
36,19,54,1,1,7,0,0,-1,0,1,6,10,1123,0,No
36,19,54,0,1,7,0,0,0,0,0,0,0,1200,0,Yes
36,20,54,45,2,7,26,26,7,7,4,30,67,1262,0,Yes
36,20,54,134,4,7,67,35,0,3,3,7,51,1348,0,No
36,20,54,0,4,7,0,0,0,0,0,0,0,1396,0,Yes
36,20,54,0,4,7,0,0,0,0,0,0,0,1479,0,No
36,13,47,22,6,7,22,22,22,22,1,8,18,1479,0,No
27,55,133,94,11,9,50,40,6,4,4,5,5,1079,0,Yes
0,0,0,0,1,1,0,0,0,0,0,0,0,264,0,No
10,34,133,8,9,7,6,6,4,6,8,38,60,920,0,No
0,0,0,0,1,1,0,0,0,0,0,0,0,289,0,No
37,24,65,192,6,8,184,184,176,176,4,10,35,1571,0,Yes
10,34,133,0,9,7,0,0,0,0,0,0,0,945,0,No
0,0,0,0,1,1,0,0,0,0,0,0,0,334,0,No
10,34,133,0,9,7,0,0,0,0,0,0,0,990,0,No
0,0,0,0,1,1,0,0,0,0,0,0,0,408,0,No
10,35,133,7,9,7,4,4,1,1,1,6,8,1064,0,No
0,0,0,0,1,1,0,0,0,0,0,0,0,457,0,No
10,35,133,0,9,7,0,0,0,0,0,0,0,1113,0,No
0,0,0,0,1,1,0,0,0,0,0,0,0,503,0,No
10,35,133,0,9,7,0,0,0,0,0,0,0,1159,0,No
10,35,133,0,9,7,0,0,0,0,0,0,0,1243,0,Yes
21,33,75,735,0,3,568,156,401,156,62,475,2676,750,0,No
21,33,75,0,0,3,0,0,0,0,0,0,0,773,0,No
21,33,75,0,0,3,0,0,0,0,0,0,0,805,0,No
21,33,75,0,0,3,0,0,0,0,0,0,0,807,0,No
21,33,75,0,0,3,0,0,0,0,0,0,0,876,0,No
21,33,75,0,0,3,0,0,0,0,0,0,0,920,0,No
21,33,75,0,0,3,0,0,0,0,0,0,0,955,0,Yes
21,33,75,0,0,3,0,0,0,0,0,0,0,982,0,Yes
21,33,75,0,0,3,0,0,0,0,0,0,0,1005,0,Yes
36,20,54,61,1,7,31,18,1,1,7,22,161,1092,0,No
40,15,51,0,8,8,0,0,0,0,0,0,0,1546,0,No
40,15,51,0,8,8,0,0,0,0,0,0,0,1571,0,No
43,15,54,47,8,8,36,22,25,20,3,11,35,1616,0,No
43,15,54,0,8,8,0,0,0,0,0,0,0,1690,0,No
43,15,54,0,8,8,0,0,0,0,0,0,0,1739,0,No
43,15,54,0,8,8,0,0,0,0,0,0,0,1785,0,No
43,15,54,0,8,8,0,0,0,0,0,0,0,1869,0,No
0,0,0,2,1,1,2,2,2,2,3,15,23,587,0,No
19,60,78,781,0,1,760,739,739,739,5,8,11,26,0,No
19,62,78,22,0,1,15,15,8,8,1,1,1,51,0,No
19,62,78,0,0,1,0,0,0,0,0,0,0,96,0,No
19,62,78,0,0,1,0,0,0,0,0,0,0,170,0,No
19,62,78,0,0,1,0,0,0,0,0,0,0,219,0,No
19,62,78,0,0,1,0,0,0,0,0,0,0,265,0,No
19,62,78,0,0,1,0,0,0,0,0,0,0,349,0,No
19,16,89,0,0,2,0,0,0,0,0,0,0,73,0,No
19,16,89,0,0,2,0,0,0,0,0,0,0,98,0,No
33,48,142,3,2,5,3,3,3,3,1,9,19,1229,0,Yes
33,48,142,0,2,5,0,0,0,0,0,0,0,1315,0,Yes
33,48,142,0,2,5,0,0,0,0,0,0,0,1363,0,Yes
33,48,142,0,2,5,0,0,0,0,0,0,0,1446,0,No
1,11,11,212,1,1,124,24,36,17,10,42,76,68,0,No
19,16,90,2,1,3,2,2,2,2,1,2,2,143,0,No
19,16,90,0,1,3,0,0,0,0,0,0,0,217,0,No
33,48,142,0,1,5,0,0,0,0,0,0,0,992,0,Yes
33,48,142,0,1,5,0,0,0,0,0,0,0,1016,0,Yes
33,48,142,0,1,5,0,0,0,0,0,0,0,1059,0,Yes
33,48,142,0,1,5,0,0,0,0,0,0,0,1090,0,Yes
33,48,142,0,1,5,0,0,0,0,0,0,0,1167,0,Yes
20,18,95,47,1,3,41,41,35,35,2,4,7,266,0,No
18,18,99,56,1,3,37,26,18,11,3,8,19,312,0,No
18,18,99,0,1,3,0,0,0,0,0,0,0,396,0,No
1,11,23,65,1,2,63,62,61,61,2,8,22,93,0,No
1,11,23,0,1,2,0,0,0,0,0,0,0,138,0,No
1,11,23,0,1,2,0,0,0,0,0,0,0,212,0,No
1,11,23,0,1,2,0,0,0,0,0,0,0,261,0,No
1,11,23,0,1,2,0,0,0,0,0,0,0,307,0,No
1,11,23,0,1,2,0,0,0,0,0,0,0,391,0,No
21,10,93,41,0,8,6,6,-29,0,7,26,39,937,0,No
23,14,39,8466,0,3,4661,753,856,372,108,668,3823,776,0,No
23,14,39,0,0,3,0,0,0,0,0,0,0,799,0,No
23,14,39,2,0,4,1,1,0,0,3,14,30,831,0,No
23,14,39,0,0,4,0,0,0,0,0,0,0,833,0,No
23,14,39,0,0,4,0,0,0,0,0,0,0,902,0,No
23,14,39,0,0,4,0,0,0,0,0,0,0,946,0,Yes
19,11,94,267,0,6,185,181,103,130,3,11,18,865,0,No
23,15,39,29,0,4,14,13,-1,0,2,10,93,981,0,Yes
19,11,94,68,0,6,36,21,4,15,2,2,3,900,0,No
23,15,39,0,0,4,0,0,0,0,0,0,0,1008,0,No
19,11,94,0,0,6,0,0,0,0,0,0,0,927,0,No
23,15,39,0,0,4,0,0,0,0,0,0,0,1031,0,No
19,11,94,0,0,6,0,0,0,0,0,0,0,950,0,No
22,10,97,22,0,8,20,20,18,18,4,13,15,961,0,No
22,10,97,0,0,8,0,0,0,0,0,0,0,1004,0,No
22,10,97,0,0,8,0,0,0,0,0,0,0,1035,0,No
22,10,97,0,0,8,0,0,0,0,0,0,0,1112,0,No
22,10,97,0,0,8,0,0,0,0,0,0,0,1174,0,No
22,10,97,0,0,8,0,0,0,0,0,0,0,1260,0,No
22,10,97,0,0,8,0,0,0,0,0,0,0,1308,0,No
22,10,97,0,0,8,0,0,0,0,0,0,0,1391,0,No
23,12,102,0,0,8,0,0,0,0,0,0,0,1458,0,No
23,12,102,0,0,8,0,0,0,0,0,0,0,1483,0,No
23,12,102,0,0,8,0,0,0,0,0,0,0,1528,0,No
23,12,102,0,0,8,0,0,0,0,0,0,0,1602,0,No
23,12,102,0,0,8,0,0,0,0,0,0,0,1651,0,No
23,12,102,0,0,8,0,0,0,0,0,0,0,1697,0,No
23,12,102,0,0,8,0,0,0,0,0,0,0,1781,0,No
