@relation dataset_SYNCOPE_final-weka.filters.unsupervised.attribute.Remove-R1-3

@attribute NOM numeric
@attribute FanOut numeric
@attribute CyclomaticComplexity numeric
@attribute LOCTouched numeric
@attribute NFix numeric
@attribute NAuth numeric
@attribute LOCAdded numeric
@attribute MaxLOCAdded numeric
@attribute Churn numeric
@attribute MaxChurn numeric
@attribute NS numeric
@attribute ND numeric
@attribute ChangeSetSize numeric
@attribute Age numeric
@attribute NSmells numeric
@attribute Bugginess {No,Yes}

@data
2,0,6,144,0,3,122,101,100,101,35,333,2613,237,2,No
6,0,18,364,0,3,311,275,258,275,35,333,2613,237,1,No
2,0,9,199,0,3,150,99,101,99,47,366,2656,237,2,No
5,0,17,254,0,3,216,187,178,187,35,333,2613,237,1,No
0,1,0,128,0,3,80,21,32,21,52,394,2743,383,0,No
0,0,0,112,0,3,70,21,28,21,47,340,2315,383,0,No
3,0,3,239,0,3,142,35,45,35,57,376,2424,822,0,No
0,0,0,144,0,4,88,21,32,21,59,403,2750,383,1,No
1,0,2,245,0,4,139,35,33,35,65,405,2471,822,0,No
2,0,2,127,0,4,101,74,75,74,42,330,2613,198,0,No
35,1,42,419,0,4,335,149,251,149,48,404,2865,738,0,No
11,1,12,141,0,3,114,71,87,71,41,394,2843,738,0,No
11,0,12,268,0,3,175,35,82,35,63,457,2940,822,2,No
2,1,2,281,0,3,163,35,45,35,67,476,2679,822,2,No
21,0,32,311,0,3,227,58,143,58,60,476,3009,758,0,No
13,0,17,168,0,4,133,52,98,52,45,407,2865,738,0,No
2,1,2,176,0,3,111,34,46,34,47,385,2461,383,0,No
1,0,1,100,0,3,66,44,32,44,36,319,2339,177,0,No
12,1,14,110,0,1,106,98,102,98,17,161,1304,152,0,No
10,3,10,156,0,3,134,109,112,109,33,299,2284,177,0,No
7,1,11,123,0,3,104,70,85,70,34,329,2608,669,0,No
5,1,6,287,0,3,172,35,57,35,63,397,2490,822,1,No
25,1,52,342,0,3,276,147,210,147,44,369,2671,669,1,No
3,1,3,243,0,3,142,35,41,35,56,404,2439,822,0,No
0,0,0,134,0,3,84,15,34,14,42,355,2409,783,1,No
16,0,20,744,0,3,442,104,140,104,96,578,3179,789,0,No
10,1,14,213,0,3,149,77,85,77,42,396,2800,660,0,No
2,2,2,273,0,3,161,35,49,35,72,521,3060,822,0,No
8,1,13,323,0,4,217,40,111,35,68,443,2899,822,2,No
4,1,4,220,0,3,133,35,46,35,57,411,2514,822,0,No
12,2,12,189,0,3,140,82,91,82,41,349,2440,760,0,No
19,3,25,317,0,3,234,70,151,70,70,486,2954,762,0,No
5,1,7,109,0,3,91,62,73,62,34,322,2599,198,0,No
4,1,4,168,0,3,106,61,44,61,42,333,2315,779,0,No
4,2,4,227,0,3,137,35,47,35,56,410,2464,822,0,No
8,0,8,240,0,4,153,35,66,35,59,374,2387,822,1,No
24,4,27,183,0,4,168,104,153,104,37,331,2332,279,0,No
14,1,15,129,0,3,117,100,105,100,28,290,2276,272,0,No
2,2,2,273,0,3,161,35,49,35,72,521,3060,822,0,No
5,2,5,287,0,3,170,35,53,35,67,469,2623,822,0,No
8,2,8,155,0,4,140,121,125,121,28,265,2172,174,0,No
14,2,14,228,0,3,163,106,98,106,52,433,2900,660,0,No
3,1,3,114,0,3,77,21,40,21,40,326,2305,383,0,No
24,2,32,225,0,3,197,97,169,97,44,373,2750,177,0,No
36,4,36,371,0,3,303,58,235,58,84,571,3168,758,0,No
25,0,31,335,0,3,256,81,177,81,69,487,3033,751,0,No
8,0,12,290,0,3,182,35,74,35,72,500,3005,822,0,No
14,2,14,391,0,3,253,149,115,149,43,373,2421,767,0,No
20,2,21,420,0,4,277,67,134,67,102,605,3146,822,0,No
2,2,2,273,0,3,161,35,49,35,72,521,3060,822,0,No
16,0,16,226,0,3,165,86,104,86,53,388,2446,383,0,No
2,0,2,192,0,3,113,77,34,77,37,342,2372,660,0,No
12,1,16,287,0,3,194,106,101,106,46,349,2385,660,0,No
10,3,13,112,0,3,98,69,84,69,32,297,2279,269,0,No
29,0,39,751,0,3,482,104,213,104,94,585,3245,789,1,No
2,1,2,220,0,3,127,35,34,35,59,396,2455,822,0,No
4,1,4,124,0,3,85,34,46,34,35,320,2272,383,0,No
20,2,21,159,0,3,146,92,133,92,30,284,2223,285,0,No
18,1,24,225,0,3,188,147,151,147,41,347,2665,285,1,No
10,11,52,667,0,5,533,353,399,353,53,388,2764,265,0,No
2,0,4,103,0,3,83,62,63,62,39,355,2732,254,3,No
7,1,13,144,0,3,120,72,96,72,33,328,2615,767,0,No
1,1,10,211,0,3,152,88,93,88,48,406,2812,767,2,No
8,1,8,131,0,3,103,59,75,59,32,299,2259,767,0,No
0,1,0,111,0,3,70,14,29,14,43,380,2524,783,2,No
20,1,24,307,0,3,241,131,175,124,57,460,2707,783,0,No
0,0,0,105,0,3,66,15,27,14,38,335,2388,783,0,No
2,0,2,604,0,3,424,164,244,123,88,582,3205,822,2,No
5,3,9,112,0,1,105,98,98,98,12,102,808,136,0,No
1,0,1,129,0,3,83,16,37,14,40,347,2401,783,1,No
0,0,0,109,0,3,70,15,31,14,45,363,2466,783,0,No
15,1,17,277,0,4,192,35,107,35,63,451,2859,822,1,No
7,1,8,244,0,3,155,35,66,35,66,478,2910,822,1,No
1,0,1,147,0,3,92,17,37,16,48,352,2409,783,0,No
0,0,0,133,0,3,84,14,35,14,47,362,2456,783,0,No
2,0,3,69,0,1,69,69,69,69,8,85,782,109,1,No
4,0,16,374,0,6,273,106,172,87,73,530,2792,783,4,No
48,1,52,403,0,4,378,267,353,267,43,355,2393,352,0,No
1,0,1,139,0,3,94,15,49,14,51,415,2577,783,0,No
0,0,0,98,0,3,62,15,26,14,36,324,2363,783,0,No
0,0,0,100,0,3,63,15,26,14,44,402,2871,783,0,No
1,0,2,130,0,3,86,14,42,14,54,387,2477,783,0,No
0,0,0,124,0,3,76,14,28,14,39,344,2418,783,0,No
0,0,0,114,0,3,71,14,28,14,39,344,2418,783,0,No
2,0,4,289,0,3,166,35,43,35,78,542,3118,822,3,No
4,1,6,228,0,4,145,29,62,24,63,501,3082,783,0,No
3,0,6,613,0,3,356,67,99,67,124,843,3740,767,1,No
2,0,9,95,0,3,80,60,65,60,31,294,2223,185,0,No
1,0,1,123,0,3,79,14,35,14,47,408,2583,783,0,No
0,0,0,120,0,3,80,17,40,16,46,349,2406,783,0,No
0,0,0,109,0,3,68,21,27,21,47,358,2348,383,0,No
0,0,0,95,0,3,62,21,29,21,39,314,2267,383,0,No
0,0,0,105,0,3,62,14,19,14,36,324,2363,783,0,No
6,12,16,886,0,4,530,75,174,68,78,583,3407,783,0,No
1,1,8,391,0,3,237,69,83,69,46,410,2951,646,1,No
11,1,13,262,0,5,187,42,112,42,48,401,2696,783,0,No
0,0,0,348,0,3,221,29,94,15,77,558,3409,783,0,No
3,1,4,190,0,3,120,34,50,34,49,416,2839,383,2,No
7,2,16,235,0,2,200,157,165,157,21,172,1328,164,0,No
2,0,2,153,0,3,98,34,43,34,38,336,2321,383,0,No
10,0,21,548,0,4,364,168,180,168,43,356,2717,537,3,No
6,2,11,173,0,3,142,93,111,93,38,353,2724,542,1,No
1,7,3,146,0,3,106,59,66,59,42,381,2846,452,1,No
13,2,13,255,0,3,184,66,113,66,47,409,2812,674,2,No
2,0,3,226,0,3,133,35,40,35,52,383,2466,822,0,No
7,0,12,114,0,3,93,50,72,50,39,343,2710,382,1,No
2,0,7,138,0,3,102,52,66,52,38,345,2685,502,0,No
2,2,5,127,0,3,102,75,77,75,35,340,2699,500,0,No
6,0,6,279,0,3,169,35,59,35,56,404,2439,822,2,No
6,8,35,298,0,2,241,195,184,195,24,237,1920,165,2,No
4,3,8,153,0,3,124,91,95,91,37,355,2726,275,0,No
2,0,8,300,0,3,201,128,102,128,33,328,2662,611,0,No
8,2,28,375,0,1,279,226,183,226,19,165,1300,164,1,No
2,6,7,601,0,3,360,167,119,167,70,505,3259,382,1,No
2,3,2,104,0,3,77,47,50,47,37,347,2759,452,1,No
5,10,24,611,0,3,411,235,211,235,53,430,2991,282,2,No
1,1,1,154,0,3,104,14,54,14,56,471,3232,783,0,No
11,6,17,837,0,4,529,114,221,109,72,534,3333,783,2,No
36,18,54,2939,0,4,1822,350,705,258,119,759,4008,783,16,No
2,4,5,394,0,3,255,105,116,105,67,522,3337,677,3,No
15,14,43,2499,0,4,1471,253,443,253,132,787,3971,758,5,No
3,5,11,565,0,3,342,121,119,121,61,457,3290,758,1,No
10,5,18,1155,0,3,733,251,311,223,81,560,3407,731,1,No
2,7,4,170,0,3,130,98,90,98,32,321,2637,177,0,No
0,0,0,101,0,3,71,15,41,14,45,405,2910,783,0,No
0,0,0,112,0,3,72,21,32,21,51,393,2784,383,0,No
0,0,0,71,0,3,52,16,33,16,29,280,2268,783,0,No
11,4,15,1410,0,4,841,141,272,116,87,560,3286,782,10,No
0,2,0,114,0,4,81,25,48,25,34,291,2295,781,1,No
2,5,2,2492,0,3,1294,413,96,413,76,541,3406,731,1,No
6,12,16,405,0,4,332,156,259,156,46,413,2929,272,3,No
0,3,0,133,0,4,101,67,69,67,39,369,2802,272,0,No
5,13,25,464,0,4,335,247,206,247,42,374,2763,282,5,No
0,2,0,165,0,3,105,47,45,47,40,338,2499,452,0,No
3,2,3,102,0,1,86,76,70,76,23,187,1394,164,0,No
35,16,64,942,0,2,758,453,574,453,25,193,1421,164,6,No
10,17,69,486,0,1,417,348,348,348,17,161,1304,152,4,No
24,14,36,689,0,4,592,285,495,284,48,391,2836,783,5,No
3,7,9,5435,0,4,2800,374,165,374,162,919,4206,752,2,No
28,10,34,2020,0,4,1263,328,506,296,103,653,3762,783,13,No
2,5,5,4661,0,3,2391,437,121,413,107,670,3800,731,1,No
1,3,3,882,0,3,489,252,96,250,56,423,3074,783,4,No
1,2,1,543,0,4,301,167,59,167,62,475,3159,382,0,No
23,14,39,8466,0,3,4661,753,856,372,108,668,3823,776,40,No
9,9,37,1217,0,5,759,162,301,162,85,557,3505,758,6,No
4,4,7,624,0,3,369,301,114,301,36,338,2696,191,2,No
2,6,3,512,0,3,312,132,112,132,69,493,3128,382,0,No
9,13,11,1455,0,4,845,301,235,301,93,616,3650,647,2,No
11,9,16,2208,0,4,1208,151,208,133,110,688,3855,783,0,No
24,14,37,1223,0,3,853,334,483,334,47,417,2982,282,8,No
8,8,16,8738,0,4,4477,703,216,485,141,820,4137,731,3,No
2,6,10,246,0,3,192,118,138,118,37,344,2736,177,3,No
2,3,2,142,0,3,102,47,62,47,36,338,2724,452,0,No
7,5,11,8962,0,4,4558,539,154,450,174,975,4554,783,3,No
3,5,11,260,0,3,187,106,114,106,47,397,2960,452,1,No
0,2,0,439,0,4,242,96,45,86,51,435,3038,783,2,No
0,3,0,158,0,3,120,81,82,81,32,321,2637,177,0,No
8,17,38,1112,0,5,690,329,268,329,69,511,3239,367,3,No
8,7,12,442,0,3,309,159,176,159,47,393,2859,450,0,No
1,0,1,159,0,3,98,15,37,14,49,397,2537,783,0,No
8,13,14,2005,0,5,1121,151,237,133,97,621,3714,783,7,No
15,14,23,798,0,4,566,350,334,350,49,404,2912,333,5,No
10,13,22,869,0,4,566,309,263,309,61,483,3151,339,1,No
8,13,14,1977,0,5,1113,151,249,133,100,628,3726,783,6,No
6,13,27,617,0,4,461,371,305,371,42,358,2749,177,2,No
7,10,11,543,0,4,389,270,235,270,37,345,2734,177,1,No
16,14,61,1537,0,5,1032,532,527,532,51,381,2778,177,0,No
5,5,15,469,0,3,332,217,195,217,45,412,2910,291,1,No
1,4,2,182,0,4,126,63,70,63,34,333,2672,367,2,No
25,18,46,1541,0,4,1048,555,555,555,60,474,3108,275,2,Yes
1,5,1,238,0,3,174,135,110,135,38,360,2765,268,1,No
6,6,11,412,0,3,303,217,194,217,43,408,2880,291,1,No
5,3,8,300,0,3,220,160,140,160,35,347,2717,268,5,No
2,5,2,176,0,3,138,103,100,103,34,344,2714,268,2,No
9,7,13,481,0,3,334,187,187,187,52,404,2866,367,2,No
10,13,17,2202,0,5,1238,151,274,133,114,698,3934,783,6,No
2,5,7,796,0,3,485,376,174,376,32,321,2637,177,3,No
12,14,19,2285,0,5,1290,151,295,133,111,686,3941,783,6,No
1,5,2,521,0,3,314,190,107,190,55,457,3092,279,0,No
9,7,29,509,0,1,433,388,357,388,21,226,1901,165,3,No
26,15,67,9445,0,4,5027,539,609,450,171,953,4448,783,5,No
9,9,15,677,0,3,431,224,185,224,56,447,3061,450,0,No
0,0,0,444,0,4,239,42,34,35,65,435,2846,822,1,No
3,3,3,96,0,4,72,43,48,43,37,356,2760,282,0,No
5,2,5,644,0,5,358,73,72,68,81,532,2942,731,0,No
11,6,21,703,0,5,452,93,201,93,92,565,3288,758,1,No
1,2,2,116,0,4,83,54,50,54,33,328,2658,579,0,No
3,1,3,143,0,3,87,15,31,14,46,381,2512,783,2,No
0,0,0,127,0,3,79,15,31,14,40,355,2422,783,1,No
7,6,9,710,0,5,395,73,80,68,81,532,2942,731,0,No
7,3,7,210,0,4,141,77,72,77,35,350,2733,272,0,No
5,6,32,519,0,5,355,141,191,57,51,437,2967,339,0,No
10,4,11,213,0,3,162,116,111,116,27,197,1464,164,0,No
5,3,7,404,0,5,238,120,72,120,47,377,2896,752,0,No
5,4,7,448,0,5,276,120,104,120,47,405,2990,752,0,No
18,6,30,2584,0,5,1445,241,306,216,90,552,3286,822,0,No
16,8,23,863,0,5,528,147,193,147,88,588,3400,647,0,No
6,4,6,132,0,5,96,55,60,55,37,345,2755,265,0,No
13,7,21,1295,0,5,731,123,167,111,93,597,3432,773,0,Yes
2,3,2,169,0,4,104,54,39,54,37,364,2784,579,0,No
4,0,4,58,0,1,53,50,48,50,19,165,1300,164,0,No
2,0,2,98,0,3,74,50,50,50,37,348,2706,502,0,No
1,1,2,92,0,3,74,53,56,53,33,344,2704,272,0,No
1,1,2,136,0,3,92,53,48,53,36,358,2731,272,0,No
1,1,10,181,0,3,137,86,93,86,37,350,2713,269,1,No
1,0,1,154,0,3,98,17,42,16,43,394,2866,783,0,No
1,0,1,273,0,3,158,35,43,35,63,447,2772,822,1,No
14,2,33,626,0,3,440,264,254,264,38,350,2726,191,0,No
5,0,16,332,0,4,213,56,94,56,50,425,2998,731,1,No
3,0,3,95,0,3,81,58,67,58,37,344,2729,541,0,No
5,0,5,429,0,3,254,64,79,64,61,479,3190,731,1,No
1,0,1,335,0,3,193,56,51,56,56,464,3092,731,0,No
2,1,2,189,0,3,128,54,67,54,37,364,2795,339,0,No
2,0,3,318,0,3,191,56,64,56,55,460,3092,731,0,No
4,0,7,429,0,3,258,64,87,64,57,473,3140,731,0,No
1,0,1,140,0,3,93,21,46,16,45,403,2924,783,0,No
6,1,32,429,0,5,284,201,139,201,45,379,2800,339,1,No
4,0,5,422,0,5,255,201,88,201,43,376,2797,339,3,No
10,1,24,701,0,5,458,324,215,324,50,419,2939,339,6,No
19,0,35,348,0,3,281,213,214,213,49,398,2867,339,1,No
0,0,0,125,0,3,82,16,39,16,38,340,2438,783,0,No
8,0,14,310,0,4,239,133,168,133,45,386,2843,339,0,No
9,0,30,210,0,1,206,203,202,203,17,161,1304,152,1,No
25,0,35,221,0,1,218,211,215,211,17,161,1304,152,0,No
5,7,6,701,0,3,425,105,149,87,60,462,3143,731,7,No
4,4,5,177,0,3,142,106,107,106,31,320,2610,268,1,No
2,3,7,151,0,1,109,74,67,74,22,189,1314,144,2,No
12,0,20,164,0,1,161,159,158,159,17,167,1269,144,0,No
2,0,14,158,0,3,135,113,112,113,44,432,2795,689,8,No
1,1,4,170,0,4,118,54,66,54,42,380,2716,296,1,No
8,8,12,1093,0,4,624,142,155,142,117,864,3880,698,3,No
1,2,20,774,0,6,483,92,192,92,90,604,2838,779,8,No
2,6,19,137,0,1,130,123,123,123,9,88,788,130,3,No
14,13,30,658,0,4,441,148,224,148,67,518,3006,375,5,Yes
1,4,9,150,0,3,116,74,82,74,39,364,2676,185,0,No
3,0,3,128,0,3,100,54,72,54,50,436,2810,438,2,No
6,21,25,579,0,4,427,208,275,208,52,441,2849,272,1,Yes
13,3,18,424,0,5,260,77,96,77,73,606,3279,776,0,No
2,0,2,112,0,3,70,14,28,14,41,358,2499,783,0,No
16,1,31,622,0,3,393,88,164,82,85,623,3333,811,3,No
25,0,42,772,0,4,470,61,168,61,103,785,3701,776,0,No
9,1,18,419,0,3,277,35,135,35,97,594,3235,822,1,No
6,3,12,630,0,4,359,177,88,177,79,593,3359,796,0,No
9,1,9,204,0,3,138,61,72,61,53,418,2611,779,1,No
8,0,12,125,0,4,109,84,93,84,33,332,2639,177,0,No
22,4,33,1350,0,4,796,126,242,126,131,881,3893,809,3,No
8,0,10,488,0,4,278,102,68,92,76,559,2838,457,0,No
7,1,7,212,0,3,135,61,58,61,52,442,2952,779,1,No
0,1,0,438,0,4,239,89,40,89,78,633,3335,776,0,No
19,3,25,957,0,3,570,82,183,82,133,830,3749,787,1,No
4,1,4,417,0,3,236,58,55,58,68,533,2865,811,0,No
39,6,49,1260,0,4,808,132,356,132,182,1179,4425,767,1,No
23,5,31,286,0,4,242,143,198,143,63,469,3016,279,0,No
16,1,17,168,0,4,156,114,144,114,33,307,2298,272,0,No
0,1,0,432,0,3,236,89,40,89,77,624,3322,776,0,No
6,4,6,255,0,3,165,100,75,100,82,568,3196,352,0,No
14,5,14,429,0,4,284,191,139,191,98,714,3475,660,0,No
13,2,27,277,0,3,211,137,145,137,43,375,2752,177,1,No
6,1,8,110,0,3,92,69,74,69,31,286,2222,177,0,No
5,2,7,147,0,3,106,69,65,69,33,333,2643,177,0,No
4,1,4,79,0,3,65,44,51,44,35,332,2363,383,0,No
15,2,15,509,0,3,333,149,157,149,68,566,2793,767,0,No
0,1,0,432,0,3,236,89,40,89,71,594,3235,776,0,No
17,4,18,368,0,4,260,121,152,121,84,566,3243,383,1,No
4,0,4,206,0,3,129,35,52,35,56,387,2466,822,0,No
6,2,6,467,0,3,268,58,69,58,75,573,2938,811,0,No
5,0,10,466,0,3,270,191,74,191,64,564,3096,660,0,No
4,0,4,344,0,3,204,133,64,133,72,542,3062,660,0,No
8,4,11,143,0,3,117,88,91,88,54,412,2860,269,0,No
11,4,19,371,0,4,255,91,139,91,73,618,3308,776,0,No
5,3,7,148,0,4,112,49,76,49,49,409,2559,618,0,No
3,2,4,249,0,4,153,35,57,35,55,414,2602,822,0,No
4,3,6,136,0,4,99,53,62,53,43,393,2889,776,0,No
0,1,0,383,0,3,207,93,31,93,55,442,2683,776,0,No
0,1,0,478,0,3,253,89,28,89,63,528,2777,776,0,No
5,3,7,162,0,4,116,53,70,53,42,394,2883,776,0,No
0,1,0,493,0,3,262,89,31,89,72,542,2887,776,0,No
24,7,30,460,0,4,334,148,208,148,76,608,3244,746,1,No
0,0,0,120,0,3,70,14,20,14,59,435,2924,783,0,No
11,4,19,376,0,4,256,91,136,91,73,618,3308,776,0,No
5,3,7,150,0,4,111,49,72,49,49,409,2559,618,0,No
3,2,4,241,0,4,149,35,57,35,53,402,2574,822,0,No
4,3,6,123,0,4,93,53,63,53,40,369,2814,776,0,No
0,1,0,343,0,3,186,93,29,93,53,429,2654,776,0,No
0,1,0,406,0,3,217,89,28,89,59,502,2724,776,0,No
5,3,7,149,0,4,109,53,69,53,39,370,2808,776,0,No
0,1,0,421,0,3,226,89,31,89,68,516,2834,776,0,No
39,11,72,1072,0,4,746,164,420,164,105,805,3669,776,0,No
53,9,96,1717,0,5,1145,144,573,144,173,1170,4411,776,1,No
11,4,19,401,0,4,279,91,157,91,78,642,3373,776,0,No
5,3,7,148,0,4,110,49,72,49,49,409,2559,618,0,No
3,2,4,265,0,4,161,35,57,35,57,433,2643,822,0,No
4,3,6,125,0,4,94,53,63,53,48,425,2990,776,0,No
0,2,0,343,0,3,187,89,31,89,58,467,2764,776,0,No
0,2,0,434,0,3,233,89,32,89,63,532,2810,776,0,No
5,3,8,206,0,5,139,53,72,53,47,429,2951,776,0,No
0,2,0,446,0,3,239,89,32,89,68,525,2856,776,0,No
5,2,5,194,0,3,115,35,36,35,56,458,3080,822,0,No
5,2,5,214,0,3,125,35,36,35,65,506,3195,822,0,No
5,2,5,198,0,3,117,35,36,35,64,504,3154,822,0,No
4,2,4,218,0,3,126,35,34,35,70,527,3150,822,0,No
4,1,4,104,0,3,68,15,32,14,49,418,2883,783,0,No
5,2,5,196,0,3,116,35,36,35,56,458,3080,822,0,No
5,4,5,192,0,3,115,35,38,35,62,491,3161,822,0,No
6,3,6,177,0,3,108,35,39,35,62,496,3074,822,0,No
5,3,5,237,0,3,137,35,37,35,77,567,3223,822,0,No
5,4,5,168,0,3,103,35,38,35,53,441,2964,822,0,No
1,0,1,97,0,3,65,14,33,14,33,323,2364,783,0,No
4,2,4,122,0,3,78,21,34,21,46,380,2714,383,0,No
8,5,8,151,0,3,98,14,45,14,53,474,3022,783,0,No
7,2,7,234,0,3,137,35,40,35,73,547,3205,822,0,No
7,3,7,237,0,3,139,35,41,35,79,573,3295,822,0,No
8,4,8,242,0,3,143,35,44,35,79,596,3269,822,0,No
12,5,12,235,0,3,144,35,53,35,70,530,3174,822,1,No
5,4,5,238,0,3,138,35,38,35,76,545,3173,822,0,No
12,5,12,277,0,3,165,35,53,35,78,595,3358,822,0,No
8,3,8,231,0,3,137,35,43,35,65,506,3116,822,0,No
13,5,13,232,0,3,144,35,56,35,94,679,3485,822,0,No
4,2,4,132,0,3,83,21,34,21,50,396,2736,383,0,No
4,2,4,295,0,5,177,35,59,35,81,602,3395,822,0,No
5,2,5,210,0,3,123,35,36,35,60,477,3137,822,0,No
5,4,5,202,0,3,120,35,38,35,62,491,3161,822,0,No
8,2,12,322,0,3,207,35,92,35,84,553,3151,822,0,No
5,2,7,440,0,3,253,58,66,58,64,514,3237,811,0,No
5,2,7,528,0,3,298,58,68,58,74,561,3326,811,0,No
5,3,9,281,0,3,178,58,75,58,64,518,3179,811,1,No
4,5,9,376,0,3,232,58,88,58,72,554,3132,811,0,No
5,2,7,383,0,3,226,58,69,58,61,501,3189,811,0,No
5,6,8,416,0,3,259,58,102,58,71,568,3321,811,0,No
6,5,9,368,0,3,227,58,86,58,72,586,3301,811,0,No
5,4,8,110,0,3,89,52,68,52,36,348,2651,185,0,No
5,6,8,194,0,3,142,60,90,60,47,422,2858,746,0,No
4,3,4,92,0,3,72,50,52,50,31,320,2597,279,0,No
8,6,14,216,0,3,151,75,86,75,51,439,2901,352,0,No
7,3,10,133,0,3,109,79,85,79,34,339,2645,177,0,No
8,4,12,158,0,3,129,74,100,74,38,354,2723,177,0,No
8,12,19,768,0,3,469,96,170,96,108,810,3648,767,1,No
14,8,26,858,0,3,529,77,200,77,100,741,3617,811,1,No
5,6,8,898,0,3,496,145,94,125,113,808,3812,811,0,No
13,8,23,586,0,4,388,58,190,58,88,660,3517,811,0,No
9,7,14,449,0,3,285,58,121,58,74,569,3296,811,0,No
17,16,79,1008,0,6,766,256,524,250,89,648,3334,566,3,No
4,3,4,120,0,3,88,50,56,50,35,336,2619,279,0,No
15,13,87,2081,0,6,1315,356,549,354,117,750,3640,822,11,No
5,2,7,569,0,3,319,58,69,58,78,580,3383,811,0,No
5,6,8,961,0,3,531,145,101,125,108,766,3751,811,0,No
2,0,67,318,0,1,318,318,318,318,1,5,6,23,7,No
3,3,16,619,0,3,369,149,119,149,66,520,3120,793,0,No
1,2,2,223,0,3,131,35,39,35,58,454,3004,822,0,No
1,3,6,230,0,4,142,35,54,35,65,485,3053,822,0,No
1,2,2,161,0,3,102,47,43,47,47,434,2988,793,0,No
0,1,0,191,0,3,112,35,33,35,57,452,3006,822,0,No
0,0,0,124,0,3,77,35,30,35,40,337,2347,822,0,No
1,1,1,523,0,3,275,149,27,149,51,461,3014,793,0,No
0,0,0,453,0,3,242,42,31,35,65,431,2825,822,1,No
0,0,0,72,0,3,56,38,40,38,31,331,2640,618,0,No
2,2,8,159,0,3,111,60,63,60,38,370,2715,618,2,No
0,0,0,72,0,3,56,38,40,38,31,331,2640,618,0,No
2,4,11,182,0,3,136,66,90,66,43,404,2811,618,3,No
0,0,0,78,0,3,59,38,40,38,35,360,2707,618,0,No
2,2,5,145,0,3,104,51,63,51,36,361,2712,618,2,No
1,0,2,127,0,3,96,68,65,68,42,383,2746,618,0,No
0,0,0,84,0,3,62,38,40,38,38,384,2765,618,0,No
2,3,6,145,0,3,103,51,61,51,43,386,2764,618,2,No
4,1,7,170,0,3,131,57,92,57,46,410,2830,618,0,No
0,0,0,78,0,3,59,37,40,37,35,345,2659,383,0,No
2,2,7,128,0,3,96,63,64,63,33,327,2606,279,1,No
0,0,0,78,0,3,59,38,40,38,34,347,2667,618,0,No
2,9,21,343,0,4,227,77,111,77,55,462,2957,352,3,No
0,0,0,70,0,3,55,37,40,37,33,333,2640,383,0,No
2,5,12,202,0,3,137,51,72,51,54,429,2834,618,2,Yes
0,0,0,82,0,3,61,37,40,37,38,359,2702,383,0,No
2,3,6,301,0,3,186,87,71,87,47,415,2812,383,2,No
0,0,0,70,0,3,55,37,40,37,33,333,2640,383,0,No
2,3,8,255,0,6,163,87,71,87,49,427,2821,383,2,No
0,0,0,72,0,3,56,38,40,38,31,331,2640,618,0,No
0,0,0,84,0,3,62,38,40,38,38,375,2732,618,0,No
2,4,12,197,0,4,136,63,75,63,45,400,2777,331,1,No
2,3,9,191,0,3,133,51,75,51,41,381,2753,618,2,No
0,0,0,76,0,3,58,37,40,37,35,339,2647,383,0,No
2,3,9,158,0,5,122,65,86,65,40,368,2699,377,1,No
0,0,0,84,0,3,62,38,40,38,41,390,2769,618,0,No
4,13,19,367,0,4,273,196,179,196,43,403,2776,289,1,No
0,0,0,76,0,3,58,38,40,38,34,357,2713,618,0,No
2,4,8,143,0,3,111,85,79,85,32,334,2651,289,1,No
1,9,25,257,0,4,196,139,135,139,39,390,2791,282,1,No
0,0,0,130,0,3,81,15,32,14,41,359,2428,783,0,No
12,2,58,502,0,3,359,243,216,243,39,382,2782,339,0,No
0,0,0,122,0,3,77,15,32,14,38,337,2376,783,0,No
0,0,0,120,0,3,76,15,32,14,38,337,2376,783,0,No
1,2,1,208,0,3,122,85,36,85,41,395,2804,352,1,No
1,7,22,324,0,4,223,71,122,71,49,429,2859,352,2,No
18,10,71,1947,0,6,1256,232,565,232,149,865,3691,695,10,No
12,1,32,668,0,4,475,126,282,126,85,584,3186,737,0,Yes
1,0,1,211,0,3,131,35,51,35,61,453,2946,822,0,No
1,1,1,74,0,3,57,38,40,38,32,316,2594,174,1,No
19,29,97,7177,0,6,4015,284,853,246,273,1490,4906,760,12,Yes
0,0,0,120,0,3,70,14,20,14,59,435,2924,783,0,No
5,3,6,213,0,3,145,50,77,45,55,432,2878,383,0,No
0,0,0,158,0,3,95,21,32,21,48,365,2369,383,0,No
2,1,2,103,0,4,75,44,47,44,42,374,2760,177,0,No
0,1,0,138,0,3,85,21,32,21,56,416,2837,383,0,No
1,1,10,86,0,1,82,79,78,79,17,161,1304,152,0,No
6,15,44,680,0,4,495,324,310,322,55,431,2871,383,5,No
4,11,15,628,0,3,369,47,110,43,103,695,3433,822,6,No
2,7,3,176,0,3,121,44,66,44,43,391,2752,601,0,No
8,12,15,1063,0,5,643,143,223,143,88,606,3359,747,2,No
11,20,35,2877,0,6,1661,411,445,411,126,770,3593,762,5,No
5,9,9,564,0,4,354,80,144,80,79,585,3366,774,0,No
0,0,0,98,0,3,64,14,30,14,37,334,2371,783,0,No
10,13,21,432,0,4,323,89,214,76,48,387,2755,544,4,No
5,8,9,257,0,4,200,134,143,134,35,330,2658,279,3,No
13,16,22,984,0,4,624,368,264,368,63,490,3054,339,4,No
13,19,41,932,0,5,690,394,448,394,52,412,2872,177,6,Yes
8,21,20,2463,0,5,1373,319,283,319,132,842,3840,760,0,No
8,13,27,747,0,4,497,164,247,164,75,540,3224,751,0,No
5,9,9,978,0,4,561,70,144,65,112,786,3773,779,0,No
16,27,43,1817,0,4,1139,228,461,228,121,752,3544,656,6,No
1,0,1,232,0,3,136,35,40,35,53,399,2458,822,0,No
29,25,61,5653,0,5,3179,176,705,160,246,1449,4992,789,8,Yes
9,12,16,389,0,5,305,165,221,165,42,369,2784,269,0,No
5,9,9,334,0,5,239,123,144,123,46,375,2828,457,0,No
3,7,3,150,0,3,117,65,84,65,35,350,2724,272,0,No
14,35,142,3975,0,4,2365,348,755,248,231,1367,4934,750,8,Yes
2,2,2,139,0,3,92,43,45,43,47,400,2817,747,0,No
3,9,22,927,0,4,554,214,181,214,98,619,3243,762,0,No
4,7,7,418,0,3,254,85,90,85,64,475,2965,774,0,No
3,2,3,103,0,4,81,58,59,58,34,333,2612,279,0,No
2,11,31,673,0,4,408,156,143,156,47,396,2785,338,2,No
6,10,21,361,0,3,263,69,165,69,52,412,2873,177,1,No
11,16,46,1317,0,4,847,200,377,200,140,880,3821,760,2,No
3,16,29,1692,0,3,962,109,232,103,130,896,3845,772,3,No
4,10,9,727,0,3,421,87,115,80,91,644,3345,774,0,No
7,23,43,899,0,5,587,94,275,70,107,699,3453,660,2,Yes
8,0,10,160,0,3,132,101,104,101,40,353,2671,789,0,No
10,29,52,2696,0,6,1559,109,422,103,233,1436,4978,772,5,No
6,7,10,187,0,4,147,98,107,98,42,380,2787,269,0,No
4,4,4,161,0,4,116,82,71,82,34,330,2640,457,2,No
4,4,7,281,0,3,211,90,141,90,55,430,2824,375,1,No
6,3,6,135,0,4,99,59,63,59,37,343,2635,258,3,No
4,10,27,443,0,5,338,241,233,241,43,398,2790,272,1,Yes
2,13,11,453,0,3,330,205,207,205,43,381,2768,177,1,No
0,0,0,193,0,3,117,34,41,34,43,361,2355,383,1,No
2,2,5,123,0,3,88,34,53,34,50,404,2794,383,2,No
3,5,12,195,0,4,152,83,109,83,37,348,2662,251,1,No
12,35,107,4023,0,5,2408,364,793,362,150,866,3773,383,9,No
6,3,6,167,0,4,129,53,91,47,37,343,2635,258,6,No
13,2,18,207,0,3,169,138,131,138,40,367,2697,275,1,No
0,0,0,120,0,3,70,14,20,14,59,435,2924,783,0,No
5,0,5,121,0,3,98,74,75,74,41,374,2703,758,1,No
3,0,3,85,0,3,67,48,49,48,33,337,2645,521,1,No
8,7,14,406,0,4,281,131,156,131,68,519,3120,598,2,No
3,6,9,209,0,3,149,90,89,90,52,441,2886,598,0,No
2,0,2,248,0,3,145,35,42,35,60,488,2987,822,0,No
21,33,75,735,0,3,568,156,401,156,62,475,2676,750,17,No
3,3,18,261,0,5,204,87,147,87,41,351,2643,317,0,No
10,17,74,712,0,2,559,361,406,361,22,171,1258,156,4,No
6,1,16,170,0,4,133,89,96,89,39,353,2341,521,1,No
8,3,93,893,0,6,716,274,539,274,43,356,2640,206,16,No
6,7,33,569,0,3,391,94,213,94,46,417,2824,480,7,No
23,20,94,790,0,3,669,270,548,237,25,181,1274,157,6,No
2,0,8,144,0,3,111,83,78,83,33,321,2594,185,0,No
4,10,20,167,0,3,144,85,121,85,35,338,2383,383,0,No
14,0,18,182,0,4,144,107,106,107,34,325,2601,206,0,No
2,0,6,115,0,4,82,51,49,51,34,325,2601,206,1,No
12,6,12,242,0,4,176,95,110,95,49,445,2914,290,0,No
24,10,82,1579,0,4,1118,303,657,293,74,574,3169,296,13,No
15,8,19,657,0,4,423,118,189,118,66,537,3115,307,1,No
17,6,17,451,0,4,333,78,215,78,63,512,3077,307,1,No
0,0,0,86,0,3,64,21,42,21,36,307,2285,383,0,No
9,1,9,151,0,3,120,70,89,70,36,362,2729,272,0,No
2,3,2,119,0,3,90,60,61,60,43,392,2743,296,0,No
1,1,1,95,0,4,63,21,31,21,43,369,2691,383,0,No
1,3,1,85,0,4,63,38,41,38,39,366,2688,296,0,No
1,2,2,83,0,4,62,36,41,36,40,361,2678,296,0,No
1,2,1,85,0,3,61,34,37,34,35,335,2630,296,0,No
1,0,1,84,0,3,56,21,28,21,41,354,2671,383,1,No
1,0,1,84,0,3,56,21,28,21,41,354,2671,383,1,No
1,1,1,97,0,3,66,21,35,21,40,324,2289,383,0,No
10,4,14,152,0,3,133,111,114,111,30,318,2597,284,1,No
16,2,25,177,0,3,164,146,151,146,25,264,2169,284,1,No
1,0,1,106,0,3,66,21,26,21,40,324,2286,383,0,No
4,0,4,113,0,3,79,21,45,21,38,316,2269,383,0,No
13,4,16,178,0,3,155,131,132,131,30,318,2597,284,0,No
20,7,35,253,0,3,229,203,205,203,30,318,2597,284,1,No
1,4,1,104,0,4,73,44,42,44,43,402,2814,296,0,No
0,0,0,120,0,3,70,14,20,14,59,435,2924,783,0,No
1,0,16,293,0,3,212,77,131,77,41,332,2611,201,0,No
2,0,6,0,0,3,0,0,0,0,0,0,0,260,2,No
6,0,18,0,0,3,0,0,0,0,0,0,0,260,1,No
2,0,9,0,0,3,0,0,0,0,0,0,0,260,2,No
5,0,17,0,0,3,0,0,0,0,0,0,0,260,1,No
0,1,0,0,0,3,0,0,0,0,0,0,0,406,0,No
0,0,0,0,0,3,0,0,0,0,0,0,0,406,0,No
3,0,3,0,0,3,0,0,0,0,0,0,0,845,0,No
0,0,0,0,0,4,0,0,0,0,0,0,0,406,1,No
1,0,2,0,0,4,0,0,0,0,0,0,0,845,0,No
2,0,2,0,0,4,0,0,0,0,0,0,0,221,0,No
35,1,42,0,0,4,0,0,0,0,0,0,0,761,0,No
11,1,12,0,0,3,0,0,0,0,0,0,0,761,0,No
11,0,12,0,0,3,0,0,0,0,0,0,0,845,2,No
2,1,2,0,0,3,0,0,0,0,0,0,0,845,2,No
21,0,32,0,0,3,0,0,0,0,0,0,0,781,0,No
13,0,17,0,0,4,0,0,0,0,0,0,0,761,0,No
2,1,2,0,0,3,0,0,0,0,0,0,0,406,0,No
1,0,1,0,0,3,0,0,0,0,0,0,0,200,0,No
12,1,14,0,0,1,0,0,0,0,0,0,0,175,0,No
10,3,10,0,0,3,0,0,0,0,0,0,0,200,0,No
7,1,11,0,0,3,0,0,0,0,0,0,0,692,0,No
5,1,6,0,0,3,0,0,0,0,0,0,0,845,1,No
25,1,52,0,0,3,0,0,0,0,0,0,0,692,1,No
3,1,3,0,0,3,0,0,0,0,0,0,0,845,0,No
0,0,0,0,0,3,0,0,0,0,0,0,0,806,1,No
16,0,20,0,0,3,0,0,0,0,0,0,0,812,0,No
10,1,14,0,0,3,0,0,0,0,0,0,0,683,0,No
2,2,2,0,0,3,0,0,0,0,0,0,0,845,0,No
8,1,13,0,0,4,0,0,0,0,0,0,0,845,2,No
4,1,4,0,0,3,0,0,0,0,0,0,0,845,0,No
12,2,12,0,0,3,0,0,0,0,0,0,0,783,0,No
19,3,25,0,0,3,0,0,0,0,0,0,0,785,0,No
5,1,7,0,0,3,0,0,0,0,0,0,0,221,0,No
4,1,4,0,0,3,0,0,0,0,0,0,0,802,0,No
4,2,4,0,0,3,0,0,0,0,0,0,0,845,0,No
8,0,8,0,0,4,0,0,0,0,0,0,0,845,1,No
24,4,27,0,0,4,0,0,0,0,0,0,0,302,0,No
16,1,17,0,0,3,0,0,0,0,0,0,0,295,0,No
2,2,2,0,0,3,0,0,0,0,0,0,0,845,0,No
5,2,5,0,0,3,0,0,0,0,0,0,0,845,0,No
8,2,8,0,0,4,0,0,0,0,0,0,0,197,0,No
14,2,14,0,0,3,0,0,0,0,0,0,0,683,0,No
3,1,3,0,0,3,0,0,0,0,0,0,0,406,0,No
24,2,32,0,0,3,0,0,0,0,0,0,0,200,0,No
36,4,36,0,0,3,0,0,0,0,0,0,0,781,0,No
25,0,31,0,0,3,0,0,0,0,0,0,0,774,0,No
8,0,12,0,0,3,0,0,0,0,0,0,0,845,0,No
14,2,14,0,0,3,0,0,0,0,0,0,0,790,0,No
20,2,21,0,0,4,0,0,0,0,0,0,0,845,0,No
2,2,2,0,0,3,0,0,0,0,0,0,0,845,0,No
16,0,16,0,0,3,0,0,0,0,0,0,0,406,0,No
2,0,2,0,0,3,0,0,0,0,0,0,0,683,0,No
12,1,16,0,0,3,0,0,0,0,0,0,0,683,0,No
10,3,13,0,0,3,0,0,0,0,0,0,0,292,0,No
29,0,39,0,0,3,0,0,0,0,0,0,0,812,1,No
2,1,2,0,0,3,0,0,0,0,0,0,0,845,0,No
4,1,4,0,0,3,0,0,0,0,0,0,0,406,0,No
20,2,21,0,0,3,0,0,0,0,0,0,0,308,0,No
18,1,24,0,0,3,0,0,0,0,0,0,0,308,1,No
10,11,52,0,0,5,0,0,0,0,0,0,0,288,0,No
2,0,4,0,0,3,0,0,0,0,0,0,0,277,3,No
7,1,13,0,0,3,0,0,0,0,0,0,0,790,0,No
1,1,10,0,0,3,0,0,0,0,0,0,0,790,2,No
8,1,8,0,0,3,0,0,0,0,0,0,0,790,0,No
0,1,0,0,0,3,0,0,0,0,0,0,0,806,2,No
20,1,24,0,0,3,0,0,0,0,0,0,0,806,0,No
0,0,0,0,0,3,0,0,0,0,0,0,0,806,0,No
2,0,2,0,0,3,0,0,0,0,0,0,0,845,2,No
5,3,9,0,0,1,0,0,0,0,0,0,0,159,0,No
1,0,1,0,0,3,0,0,0,0,0,0,0,806,1,No
0,0,0,0,0,3,0,0,0,0,0,0,0,806,0,No
15,1,17,0,0,4,0,0,0,0,0,0,0,845,1,No
7,1,8,0,0,3,0,0,0,0,0,0,0,845,1,No
1,0,1,0,0,3,0,0,0,0,0,0,0,806,0,No
0,0,0,0,0,3,0,0,0,0,0,0,0,806,0,No
2,0,3,0,0,1,0,0,0,0,0,0,0,132,1,No
4,0,16,0,0,6,0,0,0,0,0,0,0,806,4,No
48,1,52,0,0,4,0,0,0,0,0,0,0,375,0,No
1,0,1,0,0,3,0,0,0,0,0,0,0,806,0,No
0,0,0,0,0,3,0,0,0,0,0,0,0,806,0,No
0,0,0,0,0,3,0,0,0,0,0,0,0,806,0,No
1,0,2,0,0,3,0,0,0,0,0,0,0,806,0,No
0,0,0,0,0,3,0,0,0,0,0,0,0,806,0,No
0,0,0,0,0,3,0,0,0,0,0,0,0,806,0,No
2,0,4,0,0,3,0,0,0,0,0,0,0,845,3,No
4,1,6,0,0,4,0,0,0,0,0,0,0,806,0,No
3,0,6,0,0,3,0,0,0,0,0,0,0,790,1,No
2,0,9,0,0,3,0,0,0,0,0,0,0,208,0,No
1,0,1,0,0,3,0,0,0,0,0,0,0,806,0,No
0,0,0,0,0,3,0,0,0,0,0,0,0,806,0,No
0,0,0,0,0,3,0,0,0,0,0,0,0,406,0,No
0,0,0,0,0,3,0,0,0,0,0,0,0,406,0,No
0,0,0,0,0,3,0,0,0,0,0,0,0,806,0,No
6,12,16,0,0,4,0,0,0,0,0,0,0,806,0,No
1,1,8,0,0,3,0,0,0,0,0,0,0,669,1,No
11,1,13,0,0,5,0,0,0,0,0,0,0,806,0,No
0,0,0,0,0,3,0,0,0,0,0,0,0,806,0,No
3,1,4,0,0,3,0,0,0,0,0,0,0,406,2,No
7,2,16,0,0,2,0,0,0,0,0,0,0,187,0,No
2,0,2,0,0,3,0,0,0,0,0,0,0,406,0,No
10,0,21,0,0,4,0,0,0,0,0,0,0,560,3,No
6,2,11,0,0,3,0,0,0,0,0,0,0,565,1,No
1,7,3,0,0,3,0,0,0,0,0,0,0,475,1,No
13,2,13,0,0,3,0,0,0,0,0,0,0,697,2,No
2,0,3,0,0,3,0,0,0,0,0,0,0,845,0,No
7,0,12,0,0,3,0,0,0,0,0,0,0,405,1,No
2,0,7,0,0,3,0,0,0,0,0,0,0,525,0,No
2,2,5,0,0,3,0,0,0,0,0,0,0,523,0,No
6,0,6,0,0,3,0,0,0,0,0,0,0,845,2,No
6,8,35,0,0,2,0,0,0,0,0,0,0,188,2,No
4,3,8,0,0,3,0,0,0,0,0,0,0,298,0,No
2,0,8,0,0,3,0,0,0,0,0,0,0,634,0,No
8,2,28,0,0,1,0,0,0,0,0,0,0,187,1,No
2,6,7,0,0,3,0,0,0,0,0,0,0,405,1,No
2,3,2,0,0,3,0,0,0,0,0,0,0,475,1,No
5,10,24,0,0,3,0,0,0,0,0,0,0,305,2,No
1,1,1,0,0,3,0,0,0,0,0,0,0,806,0,No
11,6,17,0,0,4,0,0,0,0,0,0,0,806,2,No
36,18,54,0,0,4,0,0,0,0,0,0,0,806,16,No
2,4,5,0,0,3,0,0,0,0,0,0,0,700,3,No
15,14,43,0,0,4,0,0,0,0,0,0,0,781,5,No
3,5,11,0,0,3,0,0,0,0,0,0,0,781,1,No
10,5,18,0,0,3,0,0,0,0,0,0,0,754,1,No
2,7,4,0,0,3,0,0,0,0,0,0,0,200,0,No
0,0,0,0,0,3,0,0,0,0,0,0,0,806,0,No
0,0,0,0,0,3,0,0,0,0,0,0,0,406,0,No
0,0,0,0,0,3,0,0,0,0,0,0,0,806,0,No
11,4,15,0,0,4,0,0,0,0,0,0,0,805,10,No
0,2,0,0,0,4,0,0,0,0,0,0,0,804,1,No
2,5,2,0,0,3,0,0,0,0,0,0,0,754,1,No
6,12,16,0,0,4,0,0,0,0,0,0,0,295,3,No
0,3,0,0,0,4,0,0,0,0,0,0,0,295,0,No
5,13,25,0,0,4,0,0,0,0,0,0,0,305,5,No
0,2,0,0,0,3,0,0,0,0,0,0,0,475,0,No
3,2,3,0,0,1,0,0,0,0,0,0,0,187,0,No
35,16,64,0,0,2,0,0,0,0,0,0,0,187,6,No
10,17,69,0,0,1,0,0,0,0,0,0,0,175,4,No
24,14,36,0,0,4,0,0,0,0,0,0,0,806,5,No
3,7,9,0,0,4,0,0,0,0,0,0,0,775,2,No
28,10,34,0,0,4,0,0,0,0,0,0,0,806,13,No
2,5,5,0,0,3,0,0,0,0,0,0,0,754,1,No
1,3,3,0,0,3,0,0,0,0,0,0,0,806,4,No
1,2,1,0,0,4,0,0,0,0,0,0,0,405,0,No
23,14,39,0,0,3,0,0,0,0,0,0,0,799,40,No
9,9,37,0,0,5,0,0,0,0,0,0,0,781,6,No
4,4,7,0,0,3,0,0,0,0,0,0,0,214,2,No
2,6,3,0,0,3,0,0,0,0,0,0,0,405,0,No
9,13,11,0,0,4,0,0,0,0,0,0,0,670,2,Yes
11,9,16,0,0,4,0,0,0,0,0,0,0,806,0,No
24,14,37,0,0,3,0,0,0,0,0,0,0,305,8,No
8,8,16,0,0,4,0,0,0,0,0,0,0,754,3,No
2,6,10,0,0,3,0,0,0,0,0,0,0,200,3,No
2,3,2,0,0,3,0,0,0,0,0,0,0,475,0,No
7,5,11,0,0,4,0,0,0,0,0,0,0,806,3,No
3,5,11,0,0,3,0,0,0,0,0,0,0,475,1,No
0,2,0,0,0,4,0,0,0,0,0,0,0,806,2,No
0,3,0,0,0,3,0,0,0,0,0,0,0,200,0,No
8,17,38,0,0,5,0,0,0,0,0,0,0,390,3,No
8,7,12,0,0,3,0,0,0,0,0,0,0,473,0,No
1,0,1,0,0,3,0,0,0,0,0,0,0,806,0,No
8,13,14,0,0,5,0,0,0,0,0,0,0,806,7,No
15,14,23,0,0,4,0,0,0,0,0,0,0,356,5,No
10,13,22,0,0,4,0,0,0,0,0,0,0,362,1,No
8,13,14,0,0,5,0,0,0,0,0,0,0,806,6,No
6,13,27,0,0,4,0,0,0,0,0,0,0,200,2,No
7,10,11,0,0,4,0,0,0,0,0,0,0,200,1,No
16,14,61,0,0,5,0,0,0,0,0,0,0,200,0,No
5,5,15,0,0,3,0,0,0,0,0,0,0,314,1,No
1,4,2,0,0,4,0,0,0,0,0,0,0,390,2,No
25,18,46,3,1,5,2,2,1,1,1,2,2,298,2,No
1,5,1,0,0,3,0,0,0,0,0,0,0,291,1,No
6,6,11,0,0,3,0,0,0,0,0,0,0,314,1,No
5,3,8,0,0,3,0,0,0,0,0,0,0,291,5,No
2,5,2,0,0,3,0,0,0,0,0,0,0,291,2,No
9,7,13,0,0,3,0,0,0,0,0,0,0,390,2,No
10,13,17,0,0,5,0,0,0,0,0,0,0,806,6,No
2,5,7,0,0,3,0,0,0,0,0,0,0,200,3,No
12,14,19,0,0,5,0,0,0,0,0,0,0,806,6,No
1,5,2,0,0,3,0,0,0,0,0,0,0,302,0,No
9,7,29,0,0,1,0,0,0,0,0,0,0,188,3,No
26,15,67,0,0,4,0,0,0,0,0,0,0,806,5,No
9,9,15,0,0,3,0,0,0,0,0,0,0,473,0,No
0,0,0,0,0,4,0,0,0,0,0,0,0,845,1,No
3,3,3,0,0,4,0,0,0,0,0,0,0,305,0,No
5,2,5,0,0,5,0,0,0,0,0,0,0,754,0,No
11,6,21,0,0,5,0,0,0,0,0,0,0,781,1,No
1,2,2,0,0,4,0,0,0,0,0,0,0,602,0,No
3,1,3,0,0,3,0,0,0,0,0,0,0,806,2,No
0,0,0,0,0,3,0,0,0,0,0,0,0,806,1,No
7,6,9,0,0,5,0,0,0,0,0,0,0,754,0,No
7,3,7,0,0,4,0,0,0,0,0,0,0,295,0,No
5,6,32,0,0,5,0,0,0,0,0,0,0,362,0,No
10,4,11,0,0,3,0,0,0,0,0,0,0,187,0,No
5,3,7,0,0,5,0,0,0,0,0,0,0,775,0,No
5,4,7,0,0,5,0,0,0,0,0,0,0,775,0,No
18,6,30,0,0,5,0,0,0,0,0,0,0,845,0,No
16,8,23,0,0,5,0,0,0,0,0,0,0,670,0,No
6,4,6,0,0,5,0,0,0,0,0,0,0,288,0,No
13,7,21,6,1,5,3,3,0,0,1,2,2,796,0,No
2,3,2,0,0,4,0,0,0,0,0,0,0,602,0,No
4,0,4,0,0,1,0,0,0,0,0,0,0,187,0,No
2,0,2,0,0,3,0,0,0,0,0,0,0,525,0,No
1,1,2,0,0,3,0,0,0,0,0,0,0,295,0,No
1,1,2,0,0,3,0,0,0,0,0,0,0,295,0,No
1,1,10,0,0,3,0,0,0,0,0,0,0,292,1,No
1,0,1,0,0,3,0,0,0,0,0,0,0,806,0,No
1,0,1,0,0,3,0,0,0,0,0,0,0,845,1,No
14,2,33,0,0,3,0,0,0,0,0,0,0,214,0,No
5,0,16,0,0,4,0,0,0,0,0,0,0,754,1,No
3,0,3,0,0,3,0,0,0,0,0,0,0,564,0,No
5,0,5,0,0,3,0,0,0,0,0,0,0,754,1,No
1,0,1,0,0,3,0,0,0,0,0,0,0,754,0,No
2,1,2,0,0,3,0,0,0,0,0,0,0,362,0,No
2,0,3,0,0,3,0,0,0,0,0,0,0,754,0,No
4,0,7,0,0,3,0,0,0,0,0,0,0,754,0,No
1,0,1,0,0,3,0,0,0,0,0,0,0,806,0,No
6,1,32,0,0,5,0,0,0,0,0,0,0,362,1,No
4,0,5,0,0,5,0,0,0,0,0,0,0,362,3,No
10,1,24,0,0,5,0,0,0,0,0,0,0,362,6,No
19,0,35,0,0,3,0,0,0,0,0,0,0,362,1,No
0,0,0,0,0,3,0,0,0,0,0,0,0,806,0,No
8,0,14,0,0,4,0,0,0,0,0,0,0,362,0,No
9,0,30,0,0,1,0,0,0,0,0,0,0,175,1,No
25,0,35,0,0,1,0,0,0,0,0,0,0,175,0,No
5,7,6,0,0,3,0,0,0,0,0,0,0,754,7,No
4,4,5,0,0,3,0,0,0,0,0,0,0,291,1,No
2,3,7,0,0,1,0,0,0,0,0,0,0,167,2,No
12,0,20,0,0,1,0,0,0,0,0,0,0,167,0,No
2,0,14,0,0,3,0,0,0,0,0,0,0,712,8,No
1,1,4,0,0,4,0,0,0,0,0,0,0,319,1,No
8,8,12,0,0,4,0,0,0,0,0,0,0,721,3,No
1,2,20,0,0,6,0,0,0,0,0,0,0,802,8,No
2,6,19,0,0,1,0,0,0,0,0,0,0,153,3,No
14,13,30,0,0,4,0,0,0,0,0,0,0,398,5,Yes
1,4,9,0,0,3,0,0,0,0,0,0,0,208,0,No
3,0,3,0,0,3,0,0,0,0,0,0,0,461,2,No
7,21,26,0,0,4,0,0,0,0,0,0,0,295,1,Yes
13,3,18,0,0,5,0,0,0,0,0,0,0,799,0,No
2,0,2,0,0,3,0,0,0,0,0,0,0,806,0,No
16,1,31,0,0,3,0,0,0,0,0,0,0,834,3,No
25,0,42,0,0,4,0,0,0,0,0,0,0,799,0,No
9,1,18,0,0,3,0,0,0,0,0,0,0,845,1,No
6,3,12,0,0,4,0,0,0,0,0,0,0,819,0,No
9,1,9,0,0,3,0,0,0,0,0,0,0,802,1,No
8,0,12,0,0,4,0,0,0,0,0,0,0,200,0,No
22,4,33,0,0,4,0,0,0,0,0,0,0,832,3,No
8,0,10,0,0,4,0,0,0,0,0,0,0,480,0,No
7,1,7,0,0,3,0,0,0,0,0,0,0,802,1,No
0,1,0,0,0,4,0,0,0,0,0,0,0,799,0,No
19,3,25,0,0,3,0,0,0,0,0,0,0,810,1,No
4,1,4,0,0,3,0,0,0,0,0,0,0,834,0,No
39,6,49,0,0,4,0,0,0,0,0,0,0,790,1,No
23,5,31,0,0,4,0,0,0,0,0,0,0,302,0,No
16,1,17,0,0,4,0,0,0,0,0,0,0,295,0,No
0,1,0,0,0,3,0,0,0,0,0,0,0,799,0,No
6,4,6,0,0,3,0,0,0,0,0,0,0,375,0,No
14,5,14,0,0,4,0,0,0,0,0,0,0,683,0,No
13,2,27,0,0,3,0,0,0,0,0,0,0,200,1,No
6,1,8,0,0,3,0,0,0,0,0,0,0,200,0,No
5,2,7,0,0,3,0,0,0,0,0,0,0,200,0,No
4,1,4,0,0,3,0,0,0,0,0,0,0,406,0,No
15,2,15,0,0,3,0,0,0,0,0,0,0,790,0,No
0,1,0,0,0,3,0,0,0,0,0,0,0,799,0,No
17,4,18,0,0,4,0,0,0,0,0,0,0,406,1,No
4,0,4,0,0,3,0,0,0,0,0,0,0,845,0,No
6,2,6,0,0,3,0,0,0,0,0,0,0,834,0,No
5,0,10,0,0,3,0,0,0,0,0,0,0,683,0,No
4,0,4,0,0,3,0,0,0,0,0,0,0,683,0,No
8,4,11,0,0,3,0,0,0,0,0,0,0,292,0,No
11,4,19,0,0,4,0,0,0,0,0,0,0,799,0,No
5,3,7,0,0,4,0,0,0,0,0,0,0,641,0,No
3,2,4,0,0,4,0,0,0,0,0,0,0,845,0,No
4,3,6,0,0,4,0,0,0,0,0,0,0,799,0,No
0,1,0,0,0,3,0,0,0,0,0,0,0,799,0,No
0,1,0,0,0,3,0,0,0,0,0,0,0,799,0,No
5,3,7,0,0,4,0,0,0,0,0,0,0,799,0,No
0,1,0,0,0,3,0,0,0,0,0,0,0,799,0,No
24,7,30,0,0,4,0,0,0,0,0,0,0,769,1,No
0,0,0,0,0,3,0,0,0,0,0,0,0,806,0,No
11,4,19,0,0,4,0,0,0,0,0,0,0,799,0,No
5,3,7,0,0,4,0,0,0,0,0,0,0,641,0,No
3,2,4,0,0,4,0,0,0,0,0,0,0,845,0,No
4,3,6,0,0,4,0,0,0,0,0,0,0,799,0,No
0,1,0,0,0,3,0,0,0,0,0,0,0,799,0,No
0,1,0,0,0,3,0,0,0,0,0,0,0,799,0,No
5,3,7,0,0,4,0,0,0,0,0,0,0,799,0,No
0,1,0,0,0,3,0,0,0,0,0,0,0,799,0,No
39,11,72,0,0,4,0,0,0,0,0,0,0,799,0,No
53,9,96,0,0,5,0,0,0,0,0,0,0,799,1,No
11,4,19,0,0,4,0,0,0,0,0,0,0,799,0,No
5,3,7,0,0,4,0,0,0,0,0,0,0,641,0,No
3,2,4,0,0,4,0,0,0,0,0,0,0,845,0,No
4,3,6,0,0,4,0,0,0,0,0,0,0,799,0,No
0,2,0,0,0,3,0,0,0,0,0,0,0,799,0,No
0,2,0,0,0,3,0,0,0,0,0,0,0,799,0,No
5,3,8,0,0,5,0,0,0,0,0,0,0,799,0,No
0,2,0,0,0,3,0,0,0,0,0,0,0,799,0,No
5,2,5,0,0,3,0,0,0,0,0,0,0,845,0,No
5,2,5,0,0,3,0,0,0,0,0,0,0,845,0,No
5,2,5,0,0,3,0,0,0,0,0,0,0,845,0,No
4,2,4,0,0,3,0,0,0,0,0,0,0,845,0,No
4,1,4,0,0,3,0,0,0,0,0,0,0,806,0,No
5,2,5,0,0,3,0,0,0,0,0,0,0,845,0,No
5,4,5,0,0,3,0,0,0,0,0,0,0,845,0,No
6,3,6,0,0,3,0,0,0,0,0,0,0,845,0,No
5,3,5,0,0,3,0,0,0,0,0,0,0,845,0,No
5,4,5,0,0,3,0,0,0,0,0,0,0,845,0,No
1,0,1,0,0,3,0,0,0,0,0,0,0,806,0,No
4,2,4,0,0,3,0,0,0,0,0,0,0,406,0,No
8,5,8,0,0,3,0,0,0,0,0,0,0,806,0,No
7,2,7,0,0,3,0,0,0,0,0,0,0,845,0,No
7,3,7,0,0,3,0,0,0,0,0,0,0,845,0,No
8,4,8,0,0,3,0,0,0,0,0,0,0,845,0,No
12,5,12,0,0,3,0,0,0,0,0,0,0,845,1,No
5,4,5,0,0,3,0,0,0,0,0,0,0,845,0,No
12,5,12,0,0,3,0,0,0,0,0,0,0,845,0,No
8,3,8,0,0,3,0,0,0,0,0,0,0,845,0,No
13,5,13,0,0,3,0,0,0,0,0,0,0,845,0,No
4,2,4,0,0,3,0,0,0,0,0,0,0,406,0,No
4,2,4,0,0,5,0,0,0,0,0,0,0,845,0,No
5,2,5,0,0,3,0,0,0,0,0,0,0,845,0,No
5,4,5,0,0,3,0,0,0,0,0,0,0,845,0,No
8,2,12,0,0,3,0,0,0,0,0,0,0,845,0,No
5,2,7,0,0,3,0,0,0,0,0,0,0,834,0,No
5,2,7,0,0,3,0,0,0,0,0,0,0,834,0,No
5,3,9,0,0,3,0,0,0,0,0,0,0,834,1,No
4,5,9,0,0,3,0,0,0,0,0,0,0,834,0,No
5,2,7,0,0,3,0,0,0,0,0,0,0,834,0,No
5,6,8,0,0,3,0,0,0,0,0,0,0,834,0,No
6,5,9,0,0,3,0,0,0,0,0,0,0,834,0,No
5,4,8,0,0,3,0,0,0,0,0,0,0,208,0,No
5,6,8,0,0,3,0,0,0,0,0,0,0,769,0,No
4,3,4,0,0,3,0,0,0,0,0,0,0,302,0,No
8,6,14,0,0,3,0,0,0,0,0,0,0,375,0,No
7,3,10,0,0,3,0,0,0,0,0,0,0,200,0,No
8,4,12,0,0,3,0,0,0,0,0,0,0,200,0,No
8,12,19,0,0,3,0,0,0,0,0,0,0,790,1,No
14,8,26,0,0,3,0,0,0,0,0,0,0,834,1,No
5,6,8,0,0,3,0,0,0,0,0,0,0,834,0,No
13,8,23,0,0,4,0,0,0,0,0,0,0,834,0,No
9,7,14,0,0,3,0,0,0,0,0,0,0,834,0,No
17,16,79,0,0,6,0,0,0,0,0,0,0,589,3,No
4,3,4,0,0,3,0,0,0,0,0,0,0,302,0,No
15,13,87,0,0,6,0,0,0,0,0,0,0,845,11,No
5,2,7,0,0,3,0,0,0,0,0,0,0,834,0,No
5,6,8,0,0,3,0,0,0,0,0,0,0,834,0,No
2,0,67,0,0,1,0,0,0,0,0,0,0,46,7,No
3,3,16,0,0,3,0,0,0,0,0,0,0,816,0,No
1,2,2,0,0,3,0,0,0,0,0,0,0,845,0,No
1,3,6,0,0,4,0,0,0,0,0,0,0,845,0,No
1,2,2,0,0,3,0,0,0,0,0,0,0,816,0,No
0,1,0,0,0,3,0,0,0,0,0,0,0,845,0,No
0,0,0,0,0,3,0,0,0,0,0,0,0,845,0,No
1,1,1,0,0,3,0,0,0,0,0,0,0,816,0,No
0,0,0,0,0,3,0,0,0,0,0,0,0,845,1,No
0,0,0,0,0,3,0,0,0,0,0,0,0,641,0,No
2,2,8,0,0,3,0,0,0,0,0,0,0,641,2,No
0,0,0,0,0,3,0,0,0,0,0,0,0,641,0,No
2,4,11,0,0,3,0,0,0,0,0,0,0,641,3,No
0,0,0,0,0,3,0,0,0,0,0,0,0,641,0,No
2,2,5,0,0,3,0,0,0,0,0,0,0,641,2,No
1,0,2,0,0,3,0,0,0,0,0,0,0,641,0,No
0,0,0,0,0,3,0,0,0,0,0,0,0,641,0,No
2,3,6,0,0,3,0,0,0,0,0,0,0,641,2,No
4,1,7,0,0,3,0,0,0,0,0,0,0,641,0,No
0,0,0,0,0,3,0,0,0,0,0,0,0,406,0,No
2,2,7,0,0,3,0,0,0,0,0,0,0,302,1,No
0,0,0,0,0,3,0,0,0,0,0,0,0,641,0,No
2,9,21,0,0,4,0,0,0,0,0,0,0,375,3,No
0,0,0,0,0,3,0,0,0,0,0,0,0,406,0,No
2,4,10,0,0,3,0,0,0,0,0,0,0,641,2,Yes
0,0,0,0,0,3,0,0,0,0,0,0,0,406,0,No
2,3,6,0,0,3,0,0,0,0,0,0,0,406,2,No
0,0,0,0,0,3,0,0,0,0,0,0,0,406,0,No
2,3,8,0,0,6,0,0,0,0,0,0,0,406,2,No
0,0,0,0,0,3,0,0,0,0,0,0,0,641,0,No
0,0,0,0,0,3,0,0,0,0,0,0,0,641,0,No
2,4,12,0,0,4,0,0,0,0,0,0,0,354,1,No
2,3,9,0,0,3,0,0,0,0,0,0,0,641,2,No
0,0,0,0,0,3,0,0,0,0,0,0,0,406,0,No
2,3,9,0,0,5,0,0,0,0,0,0,0,400,1,No
0,0,0,0,0,3,0,0,0,0,0,0,0,641,0,No
4,13,19,0,0,4,0,0,0,0,0,0,0,312,1,No
0,0,0,0,0,3,0,0,0,0,0,0,0,641,0,No
2,4,8,0,0,3,0,0,0,0,0,0,0,312,1,No
1,9,25,0,0,4,0,0,0,0,0,0,0,305,1,No
0,0,0,0,0,3,0,0,0,0,0,0,0,806,0,No
12,2,58,0,0,3,0,0,0,0,0,0,0,362,0,No
0,0,0,0,0,3,0,0,0,0,0,0,0,806,0,No
0,0,0,0,0,3,0,0,0,0,0,0,0,806,0,No
1,2,1,0,0,3,0,0,0,0,0,0,0,375,1,No
1,7,22,0,0,4,0,0,0,0,0,0,0,375,2,No
18,10,71,0,0,6,0,0,0,0,0,0,0,718,10,No
12,1,32,0,0,4,0,0,0,0,0,0,0,760,0,Yes
1,0,1,0,0,3,0,0,0,0,0,0,0,845,0,No
1,1,1,0,0,3,0,0,0,0,0,0,0,197,1,No
19,28,100,0,0,6,0,0,0,0,0,0,0,783,13,Yes
0,0,0,0,0,3,0,0,0,0,0,0,0,806,0,No
5,3,6,0,0,3,0,0,0,0,0,0,0,406,0,No
0,0,0,0,0,3,0,0,0,0,0,0,0,406,0,No
2,1,2,0,0,4,0,0,0,0,0,0,0,200,0,No
0,1,0,0,0,3,0,0,0,0,0,0,0,406,0,No
1,1,10,0,0,1,0,0,0,0,0,0,0,175,0,No
6,15,44,0,0,4,0,0,0,0,0,0,0,406,5,No
4,11,15,0,0,3,0,0,0,0,0,0,0,845,6,No
2,7,3,0,0,3,0,0,0,0,0,0,0,624,0,No
8,12,15,0,0,5,0,0,0,0,0,0,0,770,2,No
11,20,35,0,0,6,0,0,0,0,0,0,0,785,5,No
5,9,9,0,0,4,0,0,0,0,0,0,0,797,0,No
0,0,0,0,0,3,0,0,0,0,0,0,0,806,0,No
10,13,21,0,0,4,0,0,0,0,0,0,0,567,4,No
5,8,9,0,0,4,0,0,0,0,0,0,0,302,3,No
13,16,22,0,0,4,0,0,0,0,0,0,0,362,4,No
13,19,41,0,0,5,0,0,0,0,0,0,0,200,6,Yes
8,21,20,0,0,5,0,0,0,0,0,0,0,783,0,No
8,13,27,0,0,4,0,0,0,0,0,0,0,774,0,No
5,9,9,0,0,4,0,0,0,0,0,0,0,802,0,No
16,27,43,0,0,4,0,0,0,0,0,0,0,679,6,No
1,0,1,0,0,3,0,0,0,0,0,0,0,845,0,No
29,25,61,0,0,5,0,0,0,0,0,0,0,812,8,Yes
9,12,16,0,0,5,0,0,0,0,0,0,0,292,0,No
5,9,9,0,0,5,0,0,0,0,0,0,0,480,0,No
3,7,3,0,0,3,0,0,0,0,0,0,0,295,0,No
14,35,142,12,1,5,6,6,0,0,1,2,2,773,8,Yes
2,2,2,0,0,3,0,0,0,0,0,0,0,770,0,No
3,9,22,0,0,4,0,0,0,0,0,0,0,785,0,No
4,7,7,0,0,3,0,0,0,0,0,0,0,797,0,No
3,2,3,0,0,4,0,0,0,0,0,0,0,302,0,No
2,11,31,0,0,4,0,0,0,0,0,0,0,361,2,No
6,10,21,0,0,3,0,0,0,0,0,0,0,200,1,No
11,16,46,0,0,4,0,0,0,0,0,0,0,783,2,No
3,16,29,0,0,3,0,0,0,0,0,0,0,795,3,No
4,10,9,0,0,3,0,0,0,0,0,0,0,797,0,No
7,24,45,0,0,5,0,0,0,0,0,0,0,683,2,Yes
8,0,10,0,0,3,0,0,0,0,0,0,0,812,0,No
10,29,52,0,0,6,0,0,0,0,0,0,0,795,5,No
6,7,10,0,0,4,0,0,0,0,0,0,0,292,0,No
4,4,4,0,0,4,0,0,0,0,0,0,0,480,2,No
4,4,7,0,0,3,0,0,0,0,0,0,0,398,1,No
6,3,6,0,0,4,0,0,0,0,0,0,0,281,3,No
4,10,27,0,0,5,0,0,0,0,0,0,0,295,1,Yes
2,13,11,0,0,3,0,0,0,0,0,0,0,200,1,No
0,0,0,0,0,3,0,0,0,0,0,0,0,406,1,No
2,2,5,0,0,3,0,0,0,0,0,0,0,406,2,No
3,5,12,0,0,4,0,0,0,0,0,0,0,274,1,No
12,35,107,0,0,5,0,0,0,0,0,0,0,406,9,No
6,3,6,0,0,4,0,0,0,0,0,0,0,281,6,No
13,2,18,0,0,3,0,0,0,0,0,0,0,298,1,No
0,0,0,0,0,3,0,0,0,0,0,0,0,806,0,No
5,0,5,0,0,3,0,0,0,0,0,0,0,781,1,No
3,0,3,0,0,3,0,0,0,0,0,0,0,544,1,No
8,7,14,0,0,4,0,0,0,0,0,0,0,621,2,No
3,6,9,0,0,3,0,0,0,0,0,0,0,621,0,No
2,0,2,0,0,3,0,0,0,0,0,0,0,845,0,No
21,33,75,0,0,3,0,0,0,0,0,0,0,773,17,No
3,3,18,0,0,5,0,0,0,0,0,0,0,340,0,No
10,17,74,0,0,2,0,0,0,0,0,0,0,179,4,Yes
6,1,16,0,0,4,0,0,0,0,0,0,0,544,1,No
8,3,93,0,0,6,0,0,0,0,0,0,0,229,16,No
6,7,33,0,0,3,0,0,0,0,0,0,0,503,7,No
23,20,94,0,0,3,0,0,0,0,0,0,0,180,6,No
2,0,8,0,0,3,0,0,0,0,0,0,0,208,0,No
4,10,20,0,0,3,0,0,0,0,0,0,0,406,0,No
14,0,18,0,0,4,0,0,0,0,0,0,0,229,0,No
2,0,6,0,0,4,0,0,0,0,0,0,0,229,1,No
12,6,12,0,0,4,0,0,0,0,0,0,0,313,0,No
24,10,82,0,0,4,0,0,0,0,0,0,0,319,13,No
15,8,19,0,0,4,0,0,0,0,0,0,0,330,1,No
17,6,17,0,0,4,0,0,0,0,0,0,0,330,1,No
0,0,0,0,0,3,0,0,0,0,0,0,0,406,0,No
9,1,9,0,0,3,0,0,0,0,0,0,0,295,0,No
2,3,2,0,0,3,0,0,0,0,0,0,0,319,0,No
1,1,1,0,0,4,0,0,0,0,0,0,0,406,0,No
1,3,1,0,0,4,0,0,0,0,0,0,0,319,0,No
1,2,2,0,0,4,0,0,0,0,0,0,0,319,0,No
1,2,1,0,0,3,0,0,0,0,0,0,0,319,0,No
1,0,1,0,0,3,0,0,0,0,0,0,0,406,1,No
1,0,1,0,0,3,0,0,0,0,0,0,0,406,1,No
1,1,1,0,0,3,0,0,0,0,0,0,0,406,0,No
10,4,14,0,0,3,0,0,0,0,0,0,0,307,1,No
16,2,25,0,0,3,0,0,0,0,0,0,0,307,1,No
1,0,1,0,0,3,0,0,0,0,0,0,0,406,0,No
4,0,4,0,0,3,0,0,0,0,0,0,0,406,0,No
13,4,16,0,0,3,0,0,0,0,0,0,0,307,0,No
20,7,35,0,0,3,0,0,0,0,0,0,0,307,1,No
1,4,1,0,0,4,0,0,0,0,0,0,0,319,0,No
0,0,0,0,0,3,0,0,0,0,0,0,0,806,0,No
1,0,16,0,0,3,0,0,0,0,0,0,0,224,0,No
2,0,6,0,0,3,0,0,0,0,0,0,0,292,2,No
6,0,18,0,0,3,0,0,0,0,0,0,0,292,1,No
2,0,9,0,0,3,0,0,0,0,0,0,0,292,2,No
5,0,17,0,0,3,0,0,0,0,0,0,0,292,1,No
0,1,0,0,0,3,0,0,0,0,0,0,0,438,0,No
0,0,0,0,0,3,0,0,0,0,0,0,0,438,0,No
3,0,3,0,0,3,0,0,0,0,0,0,0,877,0,No
0,0,0,0,0,4,0,0,0,0,0,0,0,438,1,No
1,0,2,0,0,4,0,0,0,0,0,0,0,877,0,No
2,0,2,0,0,4,0,0,0,0,0,0,0,253,0,No
35,1,42,0,0,4,0,0,0,0,0,0,0,793,0,No
11,1,12,0,0,3,0,0,0,0,0,0,0,793,0,No
11,0,12,4,0,4,2,2,0,0,3,14,30,877,2,No
2,1,2,0,0,3,0,0,0,0,0,0,0,877,2,No
19,0,28,0,0,3,0,0,0,0,0,0,0,813,0,No
13,0,17,0,0,4,0,0,0,0,0,0,0,793,0,No
2,1,2,0,0,3,0,0,0,0,0,0,0,438,0,No
1,0,1,0,0,3,0,0,0,0,0,0,0,232,0,No
12,1,14,0,0,1,0,0,0,0,0,0,0,207,0,No
10,3,10,0,0,3,0,0,0,0,0,0,0,232,0,No
7,1,11,0,0,3,0,0,0,0,0,0,0,724,0,No
5,1,6,0,0,3,0,0,0,0,0,0,0,877,1,No
25,1,52,0,0,3,0,0,0,0,0,0,0,724,1,No
3,1,3,0,0,3,0,0,0,0,0,0,0,877,0,No
0,0,0,0,0,3,0,0,0,0,0,0,0,838,1,No
16,0,20,4,0,4,2,2,0,0,3,14,30,844,0,No
10,1,14,0,0,3,0,0,0,0,0,0,0,715,0,No
2,2,2,0,0,3,0,0,0,0,0,0,0,877,0,No
8,1,13,0,0,4,0,0,0,0,0,0,0,877,2,No
4,1,4,0,0,3,0,0,0,0,0,0,0,877,0,No
12,2,12,0,0,3,0,0,0,0,0,0,0,815,0,No
19,3,25,2,0,4,1,1,0,0,3,14,30,817,0,No
5,1,7,2,0,4,1,1,0,0,3,14,30,253,0,No
4,1,4,0,0,3,0,0,0,0,0,0,0,834,0,No
4,2,4,0,0,3,0,0,0,0,0,0,0,877,0,No
8,0,8,2,0,4,1,1,0,0,3,14,30,877,1,No
24,4,27,0,0,4,0,0,0,0,0,0,0,334,0,No
16,1,17,10,1,3,10,10,10,10,2,5,5,327,0,No
2,2,2,0,0,3,0,0,0,0,0,0,0,877,0,No
5,2,5,0,0,3,0,0,0,0,0,0,0,877,0,No
8,2,8,0,0,4,0,0,0,0,0,0,0,229,0,No
14,2,14,0,0,3,0,0,0,0,0,0,0,715,0,No
3,1,3,0,0,3,0,0,0,0,0,0,0,438,0,No
24,2,32,0,0,3,0,0,0,0,0,0,0,232,0,No
36,4,36,0,0,3,0,0,0,0,0,0,0,813,0,No
25,0,31,0,0,3,0,0,0,0,0,0,0,806,0,No
8,0,12,0,0,3,0,0,0,0,0,0,0,877,0,No
14,2,14,0,0,3,0,0,0,0,0,0,0,822,0,No
20,2,21,0,0,4,0,0,0,0,0,0,0,877,0,No
2,2,2,0,0,3,0,0,0,0,0,0,0,877,0,No
16,0,16,0,0,3,0,0,0,0,0,0,0,438,0,No
2,0,2,0,0,3,0,0,0,0,0,0,0,715,0,No
12,1,16,0,0,3,0,0,0,0,0,0,0,715,0,No
10,3,13,0,0,3,0,0,0,0,0,0,0,324,0,No
29,0,39,2,0,4,1,1,0,0,3,14,30,844,1,No
2,1,2,0,0,3,0,0,0,0,0,0,0,877,0,No
4,1,4,0,0,3,0,0,0,0,0,0,0,438,0,No
20,2,21,0,0,3,0,0,0,0,0,0,0,340,0,No
18,1,24,2,0,4,1,1,0,0,3,14,30,340,1,No
10,11,52,0,0,5,0,0,0,0,0,0,0,320,0,Yes
2,0,4,0,0,3,0,0,0,0,0,0,0,309,3,No
7,1,13,0,0,3,0,0,0,0,0,0,0,822,0,No
1,1,10,0,0,3,0,0,0,0,0,0,0,822,2,No
8,1,8,0,0,3,0,0,0,0,0,0,0,822,0,No
0,1,0,0,0,3,0,0,0,0,0,0,0,838,2,No
20,1,24,0,0,3,0,0,0,0,0,0,0,838,0,No
0,0,0,0,0,3,0,0,0,0,0,0,0,838,0,No
2,0,2,0,0,3,0,0,0,0,0,0,0,877,2,No
5,3,9,0,0,1,0,0,0,0,0,0,0,191,0,No
1,0,1,0,0,3,0,0,0,0,0,0,0,838,1,No
0,0,0,0,0,3,0,0,0,0,0,0,0,838,0,No
15,1,17,0,0,4,0,0,0,0,0,0,0,877,1,No
7,1,8,0,0,3,0,0,0,0,0,0,0,877,1,No
1,0,1,0,0,3,0,0,0,0,0,0,0,838,0,No
0,0,0,0,0,3,0,0,0,0,0,0,0,838,0,No
2,0,3,0,0,1,0,0,0,0,0,0,0,164,1,No
4,0,16,0,0,6,0,0,0,0,0,0,0,838,4,No
48,1,52,0,0,4,0,0,0,0,0,0,0,407,0,No
1,0,1,0,0,3,0,0,0,0,0,0,0,838,0,No
0,0,0,0,0,3,0,0,0,0,0,0,0,838,0,No
0,0,0,0,0,3,0,0,0,0,0,0,0,838,0,No
1,0,2,0,0,3,0,0,0,0,0,0,0,838,0,No
0,0,0,0,0,3,0,0,0,0,0,0,0,838,0,No
0,0,0,0,0,3,0,0,0,0,0,0,0,838,0,No
2,0,4,0,0,3,0,0,0,0,0,0,0,877,3,No
4,1,6,0,0,4,0,0,0,0,0,0,0,838,0,No
3,0,6,0,0,3,0,0,0,0,0,0,0,822,1,No
2,0,9,0,0,3,0,0,0,0,0,0,0,240,0,No
1,0,1,0,0,3,0,0,0,0,0,0,0,838,0,No
0,0,0,0,0,3,0,0,0,0,0,0,0,838,0,No
0,0,0,0,0,3,0,0,0,0,0,0,0,438,0,No
0,0,0,0,0,3,0,0,0,0,0,0,0,438,0,No
0,0,0,0,0,3,0,0,0,0,0,0,0,838,0,No
6,12,16,0,0,4,0,0,0,0,0,0,0,838,0,No
1,1,8,0,0,3,0,0,0,0,0,0,0,701,1,No
11,1,13,0,0,5,0,0,0,0,0,0,0,838,0,No
0,0,0,0,0,3,0,0,0,0,0,0,0,838,0,No
3,1,4,0,0,3,0,0,0,0,0,0,0,438,2,No
7,2,16,0,0,2,0,0,0,0,0,0,0,219,0,No
2,0,2,0,0,3,0,0,0,0,0,0,0,438,0,No
10,0,21,0,0,4,0,0,0,0,0,0,0,592,3,No
6,2,11,0,0,3,0,0,0,0,0,0,0,597,1,No
1,7,3,0,0,3,0,0,0,0,0,0,0,507,1,No
13,2,13,0,0,3,0,0,0,0,0,0,0,729,2,No
2,0,3,0,0,3,0,0,0,0,0,0,0,877,0,No
7,0,12,0,0,3,0,0,0,0,0,0,0,437,1,No
2,0,7,0,0,3,0,0,0,0,0,0,0,557,0,No
2,2,5,0,0,3,0,0,0,0,0,0,0,555,0,No
6,0,6,0,0,3,0,0,0,0,0,0,0,877,2,No
6,8,35,0,0,2,0,0,0,0,0,0,0,220,2,No
4,3,8,0,0,3,0,0,0,0,0,0,0,330,0,No
2,0,8,0,0,3,0,0,0,0,0,0,0,666,0,No
8,2,28,0,0,1,0,0,0,0,0,0,0,219,1,No
2,6,7,4,0,4,2,2,0,0,1,2,25,437,1,No
2,3,2,0,0,3,0,0,0,0,0,0,0,507,1,No
5,10,24,0,0,3,0,0,0,0,0,0,0,337,2,No
1,1,1,0,0,3,0,0,0,0,0,0,0,838,0,No
11,6,17,0,0,4,0,0,0,0,0,0,0,838,2,No
36,18,54,4,0,5,2,2,0,0,1,2,25,838,16,No
2,4,5,4,0,4,2,2,0,0,1,2,25,732,3,No
15,14,43,4,0,5,2,2,0,0,1,2,25,813,5,No
3,5,11,2,0,4,1,1,0,0,1,2,25,813,1,No
10,5,18,0,0,3,0,0,0,0,0,0,0,786,1,No
2,7,4,0,0,3,0,0,0,0,0,0,0,232,0,No
0,0,0,0,0,3,0,0,0,0,0,0,0,838,0,No
0,0,0,0,0,3,0,0,0,0,0,0,0,438,0,No
0,0,0,0,0,3,0,0,0,0,0,0,0,838,0,No
11,4,15,2,0,5,1,1,0,0,1,2,25,837,10,No
0,2,0,0,0,4,0,0,0,0,0,0,0,836,1,No
2,5,2,2,0,4,1,1,0,0,1,2,25,786,1,No
6,12,16,10,0,5,5,3,0,0,4,16,55,327,3,No
0,3,0,0,0,4,0,0,0,0,0,0,0,327,0,No
5,13,25,4,0,5,2,2,0,0,1,2,25,337,5,No
0,2,0,0,0,3,0,0,0,0,0,0,0,507,0,No
3,2,3,0,0,1,0,0,0,0,0,0,0,219,0,No
35,16,64,6,0,4,3,2,0,0,2,4,28,219,6,No
10,17,69,6,0,2,3,2,0,0,4,16,55,207,4,No
24,14,36,0,0,4,0,0,0,0,0,0,0,838,5,No
3,7,9,4,0,5,2,2,0,0,1,2,25,807,2,No
28,10,34,0,0,4,0,0,0,0,0,0,0,838,13,No
2,5,5,4,0,4,2,2,0,0,1,2,25,786,1,No
1,3,3,3,0,4,0,0,-3,0,1,2,25,838,3,No
1,2,1,4,0,4,2,2,0,0,1,2,3,437,0,No
23,14,39,2,0,4,1,1,0,0,3,14,30,831,40,No
9,9,37,6,0,6,3,3,0,0,1,2,25,813,6,No
4,4,7,6,0,4,3,3,0,0,1,2,25,246,2,No
2,6,3,4,0,3,2,2,0,0,1,2,3,437,0,No
9,13,11,0,0,4,0,0,0,0,0,0,0,702,2,No
11,9,16,6,0,5,3,2,0,0,2,4,28,838,0,No
24,14,37,0,0,3,0,0,0,0,0,0,0,337,8,No
8,8,16,4,0,5,2,2,0,0,1,2,25,786,3,No
2,6,10,0,0,3,0,0,0,0,0,0,0,232,3,Yes
2,3,2,0,0,3,0,0,0,0,0,0,0,507,0,No
7,5,11,2,0,5,1,1,0,0,1,2,25,838,3,No
3,5,11,0,0,3,0,0,0,0,0,0,0,507,1,No
0,2,0,0,0,4,0,0,0,0,0,0,0,838,2,No
0,3,0,0,0,3,0,0,0,0,0,0,0,232,0,No
8,17,38,0,0,5,0,0,0,0,0,0,0,422,3,No
8,7,12,2,0,4,1,1,0,0,1,2,25,505,0,No
1,0,1,0,0,3,0,0,0,0,0,0,0,838,0,No
8,13,14,4,0,5,2,2,0,0,1,1,4,838,7,No
15,14,23,0,0,4,0,0,0,0,0,0,0,388,5,No
10,13,22,6,0,5,3,3,0,0,1,2,25,394,1,No
8,13,14,4,0,5,2,2,0,0,1,1,4,838,6,No
6,13,27,2,0,5,1,1,0,0,1,2,25,232,2,No
7,10,11,0,0,4,0,0,0,0,0,0,0,232,1,No
16,14,61,12,0,6,6,4,0,0,4,16,55,232,0,No
5,5,15,0,0,3,0,0,0,0,0,0,0,346,1,No
1,4,2,0,0,4,0,0,0,0,0,0,0,422,2,No
25,18,46,0,1,5,0,0,0,0,0,0,0,330,2,No
1,5,1,2,0,4,1,1,0,0,1,2,25,323,1,No
6,6,11,0,0,3,0,0,0,0,0,0,0,346,1,No
5,3,8,0,0,3,0,0,0,0,0,0,0,323,5,No
2,5,2,6,0,4,1,1,-4,0,1,2,25,323,1,No
9,7,13,0,0,3,0,0,0,0,0,0,0,422,2,No
10,13,17,4,0,5,2,2,0,0,1,1,4,838,6,No
2,5,7,0,0,3,0,0,0,0,0,0,0,232,3,No
12,14,19,4,0,5,2,2,0,0,1,1,4,838,6,No
1,5,2,0,0,3,0,0,0,0,0,0,0,334,0,No
9,7,29,4,0,2,2,2,0,0,3,14,30,220,3,No
26,15,67,0,0,4,0,0,0,0,0,0,0,838,5,No
9,9,15,0,0,3,0,0,0,0,0,0,0,505,0,No
0,0,0,0,0,4,0,0,0,0,0,0,0,877,1,No
3,3,3,0,0,4,0,0,0,0,0,0,0,337,0,Yes
5,2,5,0,0,5,0,0,0,0,0,0,0,786,0,No
11,6,21,0,0,5,0,0,0,0,0,0,0,813,1,No
1,2,2,0,0,4,0,0,0,0,0,0,0,634,0,No
3,1,3,0,0,3,0,0,0,0,0,0,0,838,2,No
0,0,0,0,0,3,0,0,0,0,0,0,0,838,1,No
7,6,9,0,0,5,0,0,0,0,0,0,0,786,0,No
7,3,7,0,0,4,0,0,0,0,0,0,0,327,0,No
5,6,32,0,0,5,0,0,0,0,0,0,0,394,0,Yes
10,4,11,0,0,3,0,0,0,0,0,0,0,219,0,No
5,3,7,0,0,5,0,0,0,0,0,0,0,807,0,No
5,4,7,0,0,5,0,0,0,0,0,0,0,807,0,No
18,6,30,0,0,5,0,0,0,0,0,0,0,877,0,No
16,8,23,2,0,5,1,1,0,0,3,14,30,702,0,Yes
6,4,6,0,0,5,0,0,0,0,0,0,0,320,0,No
13,7,21,0,1,5,0,0,0,0,0,0,0,828,0,Yes
2,3,2,0,0,4,0,0,0,0,0,0,0,634,0,No
4,0,4,0,0,1,0,0,0,0,0,0,0,219,0,No
2,0,2,0,0,3,0,0,0,0,0,0,0,557,0,No
1,1,2,0,0,3,0,0,0,0,0,0,0,327,0,No
1,1,2,0,0,3,0,0,0,0,0,0,0,327,0,No
1,1,10,0,0,3,0,0,0,0,0,0,0,324,1,No
1,0,1,0,0,3,0,0,0,0,0,0,0,838,0,No
1,0,1,0,0,3,0,0,0,0,0,0,0,877,1,No
14,2,33,0,0,3,0,0,0,0,0,0,0,246,0,No
5,0,16,0,0,4,0,0,0,0,0,0,0,786,1,No
3,0,3,0,0,3,0,0,0,0,0,0,0,596,0,No
5,0,5,2,0,4,1,1,0,0,3,14,30,786,1,No
1,0,1,0,0,3,0,0,0,0,0,0,0,786,0,No
2,1,2,0,0,3,0,0,0,0,0,0,0,394,0,No
2,0,3,0,0,3,0,0,0,0,0,0,0,786,0,No
4,0,7,2,0,4,1,1,0,0,3,14,30,786,0,No
1,0,1,0,0,3,0,0,0,0,0,0,0,838,0,No
6,1,32,0,0,5,0,0,0,0,0,0,0,394,1,No
4,0,5,0,0,5,0,0,0,0,0,0,0,394,3,No
10,1,24,0,0,5,0,0,0,0,0,0,0,394,6,No
19,0,35,0,0,3,0,0,0,0,0,0,0,394,1,No
0,0,0,0,0,3,0,0,0,0,0,0,0,838,0,No
8,0,14,0,0,4,0,0,0,0,0,0,0,394,0,No
9,0,30,0,0,1,0,0,0,0,0,0,0,207,1,No
25,0,35,0,0,1,0,0,0,0,0,0,0,207,0,No
5,7,6,0,0,3,0,0,0,0,0,0,0,786,7,No
4,4,5,0,0,3,0,0,0,0,0,0,0,323,1,No
2,3,7,0,0,1,0,0,0,0,0,0,0,199,2,No
12,0,20,0,0,1,0,0,0,0,0,0,0,199,0,No
2,0,14,0,0,3,0,0,0,0,0,0,0,744,8,No
1,1,4,0,0,4,0,0,0,0,0,0,0,351,1,No
8,8,12,0,0,4,0,0,0,0,0,0,0,753,3,No
1,2,21,0,0,6,0,0,0,0,0,0,0,834,7,No
2,6,19,0,0,1,0,0,0,0,0,0,0,185,3,No
14,13,34,0,0,4,0,0,0,0,0,0,0,430,6,Yes
1,4,9,0,0,3,0,0,0,0,0,0,0,240,0,No
5,2,9,0,0,3,0,0,0,0,0,0,0,493,2,No
1,0,1,0,0,3,0,0,0,0,0,0,0,838,0,No
7,21,26,19,1,4,15,15,11,11,2,5,5,327,1,No
13,3,18,0,0,5,0,0,0,0,0,0,0,831,0,No
2,0,2,0,0,3,0,0,0,0,0,0,0,838,0,No
17,3,45,0,0,3,0,0,0,0,0,0,0,866,7,No
25,0,42,0,0,4,0,0,0,0,0,0,0,831,0,No
9,1,18,4,0,4,2,2,0,0,3,14,30,877,1,No
6,3,12,0,0,4,0,0,0,0,0,0,0,851,0,No
9,1,9,0,0,3,0,0,0,0,0,0,0,834,1,No
8,0,13,0,0,4,0,0,0,0,0,0,0,232,0,No
22,4,33,0,0,4,0,0,0,0,0,0,0,864,3,No
8,0,10,0,0,4,0,0,0,0,0,0,0,512,0,No
7,1,7,0,0,3,0,0,0,0,0,0,0,834,1,No
0,1,0,0,0,4,0,0,0,0,0,0,0,831,0,No
19,3,25,0,0,3,0,0,0,0,0,0,0,842,1,No
4,1,4,0,0,3,0,0,0,0,0,0,0,866,0,No
39,6,49,2,0,5,1,1,0,0,3,14,30,822,1,No
23,5,31,0,0,4,0,0,0,0,0,0,0,334,0,No
16,1,17,0,0,4,0,0,0,0,0,0,0,327,0,No
0,1,0,0,0,3,0,0,0,0,0,0,0,831,0,No
6,4,6,0,0,3,0,0,0,0,0,0,0,407,0,No
14,5,14,0,0,4,0,0,0,0,0,0,0,715,0,No
13,2,27,0,0,3,0,0,0,0,0,0,0,232,1,No
6,1,8,0,0,3,0,0,0,0,0,0,0,232,0,No
5,2,7,0,0,3,0,0,0,0,0,0,0,232,0,No
4,1,4,0,0,3,0,0,0,0,0,0,0,438,0,No
15,2,15,0,0,3,0,0,0,0,0,0,0,822,0,No
0,1,0,0,0,3,0,0,0,0,0,0,0,831,0,No
17,4,18,0,0,4,0,0,0,0,0,0,0,438,1,No
4,0,4,0,0,3,0,0,0,0,0,0,0,877,0,No
6,2,6,0,0,3,0,0,0,0,0,0,0,866,0,No
5,0,10,0,0,3,0,0,0,0,0,0,0,715,0,No
4,0,4,0,0,3,0,0,0,0,0,0,0,715,0,No
8,4,11,0,0,3,0,0,0,0,0,0,0,324,0,No
11,4,19,0,0,4,0,0,0,0,0,0,0,831,0,No
5,3,7,0,0,4,0,0,0,0,0,0,0,673,0,No
3,2,4,0,0,4,0,0,0,0,0,0,0,877,0,No
4,3,6,0,0,4,0,0,0,0,0,0,0,831,0,No
0,1,0,0,0,3,0,0,0,0,0,0,0,831,0,No
0,1,0,0,0,3,0,0,0,0,0,0,0,831,0,No
5,3,7,2,0,5,1,1,0,0,3,14,30,831,0,No
0,1,0,0,0,3,0,0,0,0,0,0,0,831,0,No
24,7,30,6,0,5,3,3,0,0,3,14,30,801,1,No
0,0,0,0,0,3,0,0,0,0,0,0,0,838,0,No
11,4,19,0,0,4,0,0,0,0,0,0,0,831,0,No
5,3,7,0,0,4,0,0,0,0,0,0,0,673,0,No
3,2,4,0,0,4,0,0,0,0,0,0,0,877,0,No
4,3,6,0,0,4,0,0,0,0,0,0,0,831,0,No
0,1,0,0,0,3,0,0,0,0,0,0,0,831,0,No
0,1,0,0,0,3,0,0,0,0,0,0,0,831,0,No
5,3,7,2,0,5,1,1,0,0,3,14,30,831,0,No
0,1,0,0,0,3,0,0,0,0,0,0,0,831,0,No
39,11,72,0,0,4,0,0,0,0,0,0,0,831,0,No
53,9,97,0,0,5,0,0,0,0,0,0,0,831,2,No
11,4,19,0,0,4,0,0,0,0,0,0,0,831,0,No
5,3,7,0,0,4,0,0,0,0,0,0,0,673,0,No
3,2,4,0,0,4,0,0,0,0,0,0,0,877,0,No
4,3,6,0,0,4,0,0,0,0,0,0,0,831,0,No
0,2,0,0,0,3,0,0,0,0,0,0,0,831,0,No
0,2,0,0,0,3,0,0,0,0,0,0,0,831,0,No
5,3,8,0,0,5,0,0,0,0,0,0,0,831,0,No
0,2,0,0,0,3,0,0,0,0,0,0,0,831,0,No
5,2,5,0,0,3,0,0,0,0,0,0,0,877,0,No
5,2,5,0,0,3,0,0,0,0,0,0,0,877,0,No
5,2,5,0,0,3,0,0,0,0,0,0,0,877,0,No
4,2,4,0,0,3,0,0,0,0,0,0,0,877,0,No
4,1,4,0,0,3,0,0,0,0,0,0,0,838,0,No
5,2,5,0,0,3,0,0,0,0,0,0,0,877,0,No
5,4,5,0,0,3,0,0,0,0,0,0,0,877,0,No
6,3,6,0,0,3,0,0,0,0,0,0,0,877,0,No
5,3,5,0,0,3,0,0,0,0,0,0,0,877,0,No
5,4,5,0,0,3,0,0,0,0,0,0,0,877,0,No
1,0,1,0,0,3,0,0,0,0,0,0,0,838,0,No
4,2,4,0,0,3,0,0,0,0,0,0,0,438,0,No
8,5,8,0,0,3,0,0,0,0,0,0,0,838,0,No
7,2,7,0,0,3,0,0,0,0,0,0,0,877,0,No
7,3,7,0,0,3,0,0,0,0,0,0,0,877,0,No
8,4,8,0,0,3,0,0,0,0,0,0,0,877,0,No
12,5,12,0,0,3,0,0,0,0,0,0,0,877,1,No
5,4,5,0,0,3,0,0,0,0,0,0,0,877,0,No
12,5,12,0,0,3,0,0,0,0,0,0,0,877,0,No
8,3,8,0,0,3,0,0,0,0,0,0,0,877,0,No
13,5,13,0,0,3,0,0,0,0,0,0,0,877,0,No
4,2,4,0,0,3,0,0,0,0,0,0,0,438,0,No
4,2,4,0,0,5,0,0,0,0,0,0,0,877,0,No
5,2,5,0,0,3,0,0,0,0,0,0,0,877,0,No
5,4,5,0,0,3,0,0,0,0,0,0,0,877,0,No
8,2,12,0,0,3,0,0,0,0,0,0,0,877,0,No
5,2,7,0,0,3,0,0,0,0,0,0,0,866,0,No
5,2,7,0,0,3,0,0,0,0,0,0,0,866,0,No
5,3,9,0,0,3,0,0,0,0,0,0,0,866,1,No
4,5,9,0,0,3,0,0,0,0,0,0,0,866,0,No
5,2,7,0,0,3,0,0,0,0,0,0,0,866,0,No
5,6,8,0,0,3,0,0,0,0,0,0,0,866,0,No
6,5,9,0,0,3,0,0,0,0,0,0,0,866,0,No
5,4,8,0,0,3,0,0,0,0,0,0,0,240,0,No
5,6,8,0,0,3,0,0,0,0,0,0,0,801,0,No
4,3,4,0,0,3,0,0,0,0,0,0,0,334,0,No
8,6,14,0,0,3,0,0,0,0,0,0,0,407,0,No
7,3,10,0,0,3,0,0,0,0,0,0,0,232,0,No
8,4,12,0,0,3,0,0,0,0,0,0,0,232,0,No
8,12,19,0,0,3,0,0,0,0,0,0,0,822,1,No
14,8,26,0,0,3,0,0,0,0,0,0,0,866,1,No
5,6,8,0,0,3,0,0,0,0,0,0,0,866,0,No
13,8,23,0,0,4,0,0,0,0,0,0,0,866,0,No
9,7,14,0,0,3,0,0,0,0,0,0,0,866,0,No
17,16,79,4,0,6,2,2,0,0,3,14,30,621,3,No
4,3,4,0,0,3,0,0,0,0,0,0,0,334,0,No
15,13,87,2,0,6,1,1,0,0,3,14,30,877,11,No
5,2,7,0,0,3,0,0,0,0,0,0,0,866,0,No
5,6,8,0,0,3,0,0,0,0,0,0,0,866,0,No
2,0,67,0,0,1,0,0,0,0,0,0,0,78,7,No
2,2,2,0,0,3,0,0,0,0,0,0,0,848,0,No
1,2,2,0,0,3,0,0,0,0,0,0,0,877,0,No
1,3,6,0,0,4,0,0,0,0,0,0,0,877,0,No
1,2,2,0,0,3,0,0,0,0,0,0,0,848,0,No
0,1,0,0,0,3,0,0,0,0,0,0,0,877,0,No
0,0,0,0,0,3,0,0,0,0,0,0,0,877,0,No
1,1,1,0,0,3,0,0,0,0,0,0,0,848,0,No
0,0,0,0,0,3,0,0,0,0,0,0,0,877,1,No
0,0,0,0,0,3,0,0,0,0,0,0,0,673,0,No
2,2,8,0,0,3,0,0,0,0,0,0,0,673,2,No
0,0,0,0,0,3,0,0,0,0,0,0,0,673,0,No
2,4,11,0,0,3,0,0,0,0,0,0,0,673,3,No
0,0,0,0,0,3,0,0,0,0,0,0,0,673,0,No
2,2,5,0,0,3,0,0,0,0,0,0,0,673,2,No
1,0,2,0,0,3,0,0,0,0,0,0,0,673,0,No
0,0,0,0,0,3,0,0,0,0,0,0,0,673,0,No
2,3,6,0,0,3,0,0,0,0,0,0,0,673,2,No
4,1,7,0,0,3,0,0,0,0,0,0,0,673,0,No
0,0,0,0,0,3,0,0,0,0,0,0,0,438,0,No
2,2,7,0,0,3,0,0,0,0,0,0,0,334,1,No
0,0,0,0,0,3,0,0,0,0,0,0,0,673,0,No
2,9,21,0,0,4,0,0,0,0,0,0,0,407,3,No
0,0,0,0,0,3,0,0,0,0,0,0,0,438,0,No
2,4,10,4,1,3,1,1,-2,0,1,3,4,673,2,No
0,0,0,0,0,3,0,0,0,0,0,0,0,438,0,No
2,3,6,0,0,3,0,0,0,0,0,0,0,438,2,No
0,0,0,0,0,3,0,0,0,0,0,0,0,438,0,No
2,3,8,0,0,6,0,0,0,0,0,0,0,438,2,No
0,0,0,0,0,3,0,0,0,0,0,0,0,673,0,No
0,0,0,0,0,3,0,0,0,0,0,0,0,673,0,No
2,4,12,0,0,4,0,0,0,0,0,0,0,386,1,No
2,3,9,0,0,3,0,0,0,0,0,0,0,673,2,No
0,0,0,0,0,3,0,0,0,0,0,0,0,438,0,No
2,3,9,0,0,5,0,0,0,0,0,0,0,432,1,No
0,0,0,0,0,3,0,0,0,0,0,0,0,673,0,No
4,13,24,0,0,4,0,0,0,0,0,0,0,344,1,No
0,0,0,0,0,3,0,0,0,0,0,0,0,673,0,No
2,4,8,0,0,3,0,0,0,0,0,0,0,344,1,No
1,9,25,0,0,4,0,0,0,0,0,0,0,337,1,No
0,0,0,0,0,3,0,0,0,0,0,0,0,838,0,No
12,2,58,0,0,3,0,0,0,0,0,0,0,394,0,No
0,0,0,0,0,3,0,0,0,0,0,0,0,838,0,No
0,0,0,0,0,3,0,0,0,0,0,0,0,838,0,No
1,2,1,0,0,3,0,0,0,0,0,0,0,407,1,No
1,7,18,0,0,4,0,0,0,0,0,0,0,407,1,No
18,10,71,0,0,6,0,0,0,0,0,0,0,750,10,No
12,1,32,24,1,4,9,8,-6,0,4,17,34,792,0,No
1,0,1,0,0,3,0,0,0,0,0,0,0,877,0,No
1,1,1,0,0,3,0,0,0,0,0,0,0,229,1,No
19,28,100,142,1,6,76,75,10,10,4,17,34,815,13,No
0,0,0,0,0,3,0,0,0,0,0,0,0,838,0,No
5,3,6,0,0,3,0,0,0,0,0,0,0,438,0,No
0,0,0,0,0,3,0,0,0,0,0,0,0,438,0,No
2,1,2,0,0,4,0,0,0,0,0,0,0,232,0,No
0,1,0,0,0,3,0,0,0,0,0,0,0,438,0,No
1,1,10,0,0,1,0,0,0,0,0,0,0,207,0,No
6,15,44,0,0,4,0,0,0,0,0,0,0,438,5,No
4,11,15,0,0,3,0,0,0,0,0,0,0,877,6,No
2,7,3,0,0,3,0,0,0,0,0,0,0,656,0,No
8,12,15,0,0,5,0,0,0,0,0,0,0,802,2,No
11,20,35,0,0,6,0,0,0,0,0,0,0,817,5,No
5,9,9,0,0,4,0,0,0,0,0,0,0,829,0,No
0,0,0,0,0,3,0,0,0,0,0,0,0,838,0,No
10,13,21,0,0,4,0,0,0,0,0,0,0,599,4,No
5,8,9,0,0,4,0,0,0,0,0,0,0,334,3,No
13,16,22,0,0,4,0,0,0,0,0,0,0,394,4,Yes
13,19,38,0,0,5,0,0,0,0,0,0,0,232,7,Yes
8,21,20,0,0,5,0,0,0,0,0,0,0,815,0,No
8,13,27,0,0,4,0,0,0,0,0,0,0,806,0,No
5,9,9,0,0,4,0,0,0,0,0,0,0,834,0,No
16,27,43,0,0,4,0,0,0,0,0,0,0,711,6,Yes
1,0,1,0,0,3,0,0,0,0,0,0,0,877,0,No
29,25,61,0,0,5,0,0,0,0,0,0,0,844,8,Yes
9,12,16,0,0,5,0,0,0,0,0,0,0,324,0,No
5,9,9,0,0,5,0,0,0,0,0,0,0,512,0,No
3,7,3,0,0,3,0,0,0,0,0,0,0,327,0,Yes
14,35,142,0,1,5,0,0,0,0,0,0,0,805,8,Yes
2,2,2,0,0,3,0,0,0,0,0,0,0,802,0,No
3,9,22,0,0,4,0,0,0,0,0,0,0,817,0,No
4,7,7,0,0,3,0,0,0,0,0,0,0,829,0,No
3,2,3,0,0,4,0,0,0,0,0,0,0,334,0,No
2,11,31,0,0,4,0,0,0,0,0,0,0,393,2,Yes
6,10,21,0,0,3,0,0,0,0,0,0,0,232,1,No
11,16,46,0,0,4,0,0,0,0,0,0,0,815,2,No
3,16,30,0,0,3,0,0,0,0,0,0,0,827,3,No
4,10,9,0,0,3,0,0,0,0,0,0,0,829,0,No
7,24,45,12,1,5,9,9,6,6,2,5,5,715,2,Yes
8,0,10,0,0,3,0,0,0,0,0,0,0,844,0,No
10,29,52,0,0,6,0,0,0,0,0,0,0,827,5,Yes
6,7,10,0,0,4,0,0,0,0,0,0,0,324,0,No
4,4,4,0,0,4,0,0,0,0,0,0,0,512,2,No
4,4,7,0,0,3,0,0,0,0,0,0,0,430,1,No
6,3,6,0,0,4,0,0,0,0,0,0,0,313,3,No
4,10,27,78,1,5,40,40,2,2,2,5,5,327,1,Yes
2,13,11,0,0,3,0,0,0,0,0,0,0,232,1,No
0,0,0,0,0,3,0,0,0,0,0,0,0,438,1,No
2,2,5,0,0,3,0,0,0,0,0,0,0,438,2,No
3,5,12,0,0,4,0,0,0,0,0,0,0,306,1,No
12,38,109,0,0,5,0,0,0,0,0,0,0,438,9,No
6,3,6,0,0,4,0,0,0,0,0,0,0,313,6,No
13,2,18,0,0,3,0,0,0,0,0,0,0,330,1,No
0,0,0,0,0,3,0,0,0,0,0,0,0,838,0,No
5,0,5,0,0,3,0,0,0,0,0,0,0,813,1,No
3,0,3,0,0,3,0,0,0,0,0,0,0,576,1,No
8,7,14,0,0,4,0,0,0,0,0,0,0,653,2,Yes
3,6,9,0,0,3,0,0,0,0,0,0,0,653,0,No
2,0,2,0,0,3,0,0,0,0,0,0,0,877,0,No
21,33,75,0,0,3,0,0,0,0,0,0,0,805,17,No
3,3,18,0,0,5,0,0,0,0,0,0,0,372,0,No
10,17,74,17,1,3,8,6,-1,0,4,15,31,211,4,Yes
6,1,16,0,0,4,0,0,0,0,0,0,0,576,1,Yes
8,3,93,0,0,6,0,0,0,0,0,0,0,261,16,No
6,7,33,0,0,3,0,0,0,0,0,0,0,535,7,No
23,20,94,0,0,3,0,0,0,0,0,0,0,212,6,No
2,0,8,0,0,3,0,0,0,0,0,0,0,240,0,No
4,10,20,0,0,3,0,0,0,0,0,0,0,438,0,No
14,0,18,0,0,4,0,0,0,0,0,0,0,261,0,No
2,0,6,0,0,4,0,0,0,0,0,0,0,261,1,No
13,7,13,0,0,4,0,0,0,0,0,0,0,345,0,No
25,12,83,0,0,4,0,0,0,0,0,0,0,351,13,Yes
15,8,19,2,0,5,1,1,0,0,3,14,30,362,0,No
18,8,18,0,0,4,0,0,0,0,0,0,0,362,1,No
0,0,0,0,0,3,0,0,0,0,0,0,0,438,0,No
9,1,9,0,0,3,0,0,0,0,0,0,0,327,0,No
2,3,2,0,0,3,0,0,0,0,0,0,0,351,0,No
1,1,1,0,0,4,0,0,0,0,0,0,0,438,0,No
1,3,1,0,0,4,0,0,0,0,0,0,0,351,0,No
1,2,2,0,0,4,0,0,0,0,0,0,0,351,0,No
1,2,1,0,0,3,0,0,0,0,0,0,0,351,0,No
1,0,1,0,0,3,0,0,0,0,0,0,0,438,1,No
1,0,1,0,0,3,0,0,0,0,0,0,0,438,1,No
1,1,1,0,0,3,0,0,0,0,0,0,0,438,0,No
10,4,14,2,0,4,1,1,0,0,3,14,30,339,1,No
16,2,25,2,0,4,1,1,0,0,3,14,30,339,1,No
1,0,1,0,0,3,0,0,0,0,0,0,0,438,0,No
4,0,4,0,0,3,0,0,0,0,0,0,0,438,0,No
13,4,16,2,0,4,1,1,0,0,3,14,30,339,0,No
20,7,35,4,0,4,2,2,0,0,3,14,30,339,1,No
1,4,1,0,0,4,0,0,0,0,0,0,0,351,0,No
0,0,0,0,0,3,0,0,0,0,0,0,0,838,0,No
1,0,16,0,0,3,0,0,0,0,0,0,0,256,0,No
2,0,6,0,0,3,0,0,0,0,0,0,0,294,2,No
6,0,18,0,0,3,0,0,0,0,0,0,0,294,1,No
2,0,9,0,0,3,0,0,0,0,0,0,0,294,2,No
5,0,17,0,0,3,0,0,0,0,0,0,0,294,1,No
0,1,0,0,0,3,0,0,0,0,0,0,0,440,0,No
0,0,0,0,0,3,0,0,0,0,0,0,0,440,0,No
3,0,3,0,0,3,0,0,0,0,0,0,0,879,0,No
0,0,0,0,0,4,0,0,0,0,0,0,0,440,1,No
1,0,2,0,0,4,0,0,0,0,0,0,0,879,0,No
2,0,2,0,0,4,0,0,0,0,0,0,0,255,0,No
35,1,42,0,0,4,0,0,0,0,0,0,0,795,0,No
11,1,12,0,0,3,0,0,0,0,0,0,0,795,0,No
11,0,12,0,0,4,0,0,0,0,0,0,0,879,2,No
2,1,2,0,0,3,0,0,0,0,0,0,0,879,2,No
21,0,32,0,0,3,0,0,0,0,0,0,0,815,0,Yes
13,0,17,0,0,4,0,0,0,0,0,0,0,795,0,No
2,1,2,0,0,3,0,0,0,0,0,0,0,440,0,No
1,0,1,0,0,3,0,0,0,0,0,0,0,234,0,No
12,1,14,0,0,1,0,0,0,0,0,0,0,209,0,No
10,3,10,0,0,3,0,0,0,0,0,0,0,234,0,No
7,1,11,0,0,3,0,0,0,0,0,0,0,726,0,No
5,1,6,0,0,3,0,0,0,0,0,0,0,879,1,No
25,1,52,0,0,3,0,0,0,0,0,0,0,726,1,No
3,1,3,0,0,3,0,0,0,0,0,0,0,879,0,No
0,0,0,0,0,3,0,0,0,0,0,0,0,840,1,No
16,0,20,0,0,4,0,0,0,0,0,0,0,846,0,No
10,1,14,0,0,3,0,0,0,0,0,0,0,717,0,No
2,2,2,0,0,3,0,0,0,0,0,0,0,879,0,No
8,1,13,0,0,4,0,0,0,0,0,0,0,879,2,No
4,1,4,0,0,3,0,0,0,0,0,0,0,879,0,No
12,2,12,0,0,3,0,0,0,0,0,0,0,817,0,No
19,3,25,0,0,4,0,0,0,0,0,0,0,819,0,No
5,1,7,0,0,4,0,0,0,0,0,0,0,255,0,No
4,1,4,0,0,3,0,0,0,0,0,0,0,836,0,No
4,2,4,0,0,3,0,0,0,0,0,0,0,879,0,No
8,0,8,0,0,4,0,0,0,0,0,0,0,879,1,No
24,4,27,0,0,4,0,0,0,0,0,0,0,336,0,No
16,1,17,0,1,3,0,0,0,0,0,0,0,329,0,No
2,2,2,0,0,3,0,0,0,0,0,0,0,879,0,No
5,2,5,0,0,3,0,0,0,0,0,0,0,879,0,No
8,2,8,0,0,4,0,0,0,0,0,0,0,231,0,No
14,2,14,0,0,3,0,0,0,0,0,0,0,717,0,No
3,1,3,0,0,3,0,0,0,0,0,0,0,440,0,No
24,2,32,0,0,3,0,0,0,0,0,0,0,234,0,No
36,4,36,0,0,3,0,0,0,0,0,0,0,815,0,No
25,0,31,0,0,3,0,0,0,0,0,0,0,808,0,No
8,0,12,0,0,3,0,0,0,0,0,0,0,879,0,No
14,2,14,0,0,3,0,0,0,0,0,0,0,824,0,No
20,2,21,0,0,4,0,0,0,0,0,0,0,879,0,No
2,2,2,0,0,3,0,0,0,0,0,0,0,879,0,No
16,0,16,0,0,3,0,0,0,0,0,0,0,440,0,No
2,0,2,0,0,3,0,0,0,0,0,0,0,717,0,No
12,1,16,0,0,3,0,0,0,0,0,0,0,717,0,No
10,3,13,0,0,3,0,0,0,0,0,0,0,326,0,No
29,0,39,0,0,4,0,0,0,0,0,0,0,846,1,No
2,1,2,0,0,3,0,0,0,0,0,0,0,879,0,No
4,1,4,0,0,3,0,0,0,0,0,0,0,440,0,No
20,2,21,0,0,3,0,0,0,0,0,0,0,342,0,No
18,1,24,0,0,4,0,0,0,0,0,0,0,342,1,No
10,11,52,0,0,5,0,0,0,0,0,0,0,322,0,Yes
2,0,4,0,0,3,0,0,0,0,0,0,0,311,3,No
7,1,13,0,0,3,0,0,0,0,0,0,0,824,0,No
1,1,10,0,0,3,0,0,0,0,0,0,0,824,2,No
8,1,8,0,0,3,0,0,0,0,0,0,0,824,0,No
0,1,0,0,0,3,0,0,0,0,0,0,0,840,2,No
20,1,24,0,0,3,0,0,0,0,0,0,0,840,0,No
0,0,0,0,0,3,0,0,0,0,0,0,0,840,0,No
2,0,2,0,0,3,0,0,0,0,0,0,0,879,2,No
5,3,9,0,0,1,0,0,0,0,0,0,0,193,0,No
1,0,1,0,0,3,0,0,0,0,0,0,0,840,1,No
0,0,0,0,0,3,0,0,0,0,0,0,0,840,0,No
15,1,17,0,0,4,0,0,0,0,0,0,0,879,1,No
7,1,8,0,0,3,0,0,0,0,0,0,0,879,1,No
1,0,1,0,0,3,0,0,0,0,0,0,0,840,0,No
0,0,0,0,0,3,0,0,0,0,0,0,0,840,0,No
2,0,3,0,0,1,0,0,0,0,0,0,0,166,1,No
4,0,16,0,0,6,0,0,0,0,0,0,0,840,4,No
48,1,52,0,0,4,0,0,0,0,0,0,0,409,0,No
1,0,1,0,0,3,0,0,0,0,0,0,0,840,0,No
0,0,0,0,0,3,0,0,0,0,0,0,0,840,0,No
0,0,0,0,0,3,0,0,0,0,0,0,0,840,0,No
1,0,2,0,0,3,0,0,0,0,0,0,0,840,0,No
0,0,0,0,0,3,0,0,0,0,0,0,0,840,0,No
0,0,0,0,0,3,0,0,0,0,0,0,0,840,0,No
2,0,4,0,0,3,0,0,0,0,0,0,0,879,3,No
4,1,6,0,0,4,0,0,0,0,0,0,0,840,0,No
3,0,6,0,0,3,0,0,0,0,0,0,0,824,1,No
2,0,9,0,0,3,0,0,0,0,0,0,0,242,0,No
1,0,1,0,0,3,0,0,0,0,0,0,0,840,0,No
0,0,0,0,0,3,0,0,0,0,0,0,0,840,0,No
0,0,0,0,0,3,0,0,0,0,0,0,0,440,0,No
0,0,0,0,0,3,0,0,0,0,0,0,0,440,0,No
0,0,0,0,0,3,0,0,0,0,0,0,0,840,0,No
6,12,16,0,0,4,0,0,0,0,0,0,0,840,0,No
1,1,8,0,0,3,0,0,0,0,0,0,0,703,1,No
11,1,13,0,0,5,0,0,0,0,0,0,0,840,0,No
0,0,0,0,0,3,0,0,0,0,0,0,0,840,0,No
3,1,4,0,0,3,0,0,0,0,0,0,0,440,2,No
7,2,16,0,0,2,0,0,0,0,0,0,0,221,0,No
2,0,2,0,0,3,0,0,0,0,0,0,0,440,0,No
10,0,21,0,0,4,0,0,0,0,0,0,0,594,3,No
6,2,11,0,0,3,0,0,0,0,0,0,0,599,1,No
1,7,3,0,0,3,0,0,0,0,0,0,0,509,1,No
13,2,13,0,0,3,0,0,0,0,0,0,0,731,2,No
2,0,3,0,0,3,0,0,0,0,0,0,0,879,0,No
7,0,12,0,0,3,0,0,0,0,0,0,0,439,1,No
2,0,7,0,0,3,0,0,0,0,0,0,0,559,0,No
2,2,5,0,0,3,0,0,0,0,0,0,0,557,0,No
6,0,6,0,0,3,0,0,0,0,0,0,0,879,2,No
6,8,35,0,0,2,0,0,0,0,0,0,0,222,2,No
4,3,8,0,0,3,0,0,0,0,0,0,0,332,0,No
2,0,8,0,0,3,0,0,0,0,0,0,0,668,0,No
8,2,28,0,0,1,0,0,0,0,0,0,0,221,1,No
2,6,7,0,0,4,0,0,0,0,0,0,0,439,1,No
2,3,2,0,0,3,0,0,0,0,0,0,0,509,1,No
5,10,24,0,0,3,0,0,0,0,0,0,0,339,2,No
1,1,1,0,0,3,0,0,0,0,0,0,0,840,0,No
11,6,17,0,0,4,0,0,0,0,0,0,0,840,2,No
36,18,54,0,0,5,0,0,0,0,0,0,0,840,16,No
2,4,5,0,0,4,0,0,0,0,0,0,0,734,3,No
15,14,43,0,0,5,0,0,0,0,0,0,0,815,5,No
3,5,11,0,0,4,0,0,0,0,0,0,0,815,1,No
10,5,18,0,0,3,0,0,0,0,0,0,0,788,1,No
2,7,4,0,0,3,0,0,0,0,0,0,0,234,0,No
0,0,0,0,0,3,0,0,0,0,0,0,0,840,0,No
0,0,0,0,0,3,0,0,0,0,0,0,0,440,0,No
0,0,0,0,0,3,0,0,0,0,0,0,0,840,0,No
11,4,15,0,0,5,0,0,0,0,0,0,0,839,10,No
0,2,0,0,0,4,0,0,0,0,0,0,0,838,1,No
2,5,2,0,0,4,0,0,0,0,0,0,0,788,1,No
6,12,16,0,0,5,0,0,0,0,0,0,0,329,3,No
0,3,0,0,0,4,0,0,0,0,0,0,0,329,0,No
5,13,25,0,0,5,0,0,0,0,0,0,0,339,5,No
0,2,0,0,0,3,0,0,0,0,0,0,0,509,0,No
3,2,3,0,0,1,0,0,0,0,0,0,0,221,0,No
35,16,64,0,0,4,0,0,0,0,0,0,0,221,6,No
10,17,69,0,0,2,0,0,0,0,0,0,0,209,4,No
24,14,36,0,0,4,0,0,0,0,0,0,0,840,5,No
3,7,9,0,0,5,0,0,0,0,0,0,0,809,2,No
28,10,34,0,0,4,0,0,0,0,0,0,0,840,13,No
2,5,5,0,0,4,0,0,0,0,0,0,0,788,1,No
1,3,3,0,0,4,0,0,0,0,0,0,0,840,3,No
1,2,1,0,0,4,0,0,0,0,0,0,0,439,0,No
23,14,39,0,0,4,0,0,0,0,0,0,0,833,40,No
9,9,37,0,0,6,0,0,0,0,0,0,0,815,6,No
4,4,7,0,0,4,0,0,0,0,0,0,0,248,2,No
2,6,3,0,0,3,0,0,0,0,0,0,0,439,0,No
9,13,11,0,0,4,0,0,0,0,0,0,0,704,2,No
11,9,16,0,0,5,0,0,0,0,0,0,0,840,0,No
24,14,37,0,0,3,0,0,0,0,0,0,0,339,8,No
8,8,16,0,0,5,0,0,0,0,0,0,0,788,3,No
2,6,10,0,0,3,0,0,0,0,0,0,0,234,3,Yes
2,3,2,0,0,3,0,0,0,0,0,0,0,509,0,No
7,5,11,0,0,5,0,0,0,0,0,0,0,840,3,No
3,5,11,0,0,3,0,0,0,0,0,0,0,509,1,No
0,2,0,0,0,4,0,0,0,0,0,0,0,840,2,No
0,3,0,0,0,3,0,0,0,0,0,0,0,234,0,No
8,17,38,0,0,5,0,0,0,0,0,0,0,424,3,No
8,7,12,0,0,4,0,0,0,0,0,0,0,507,0,No
1,0,1,0,0,3,0,0,0,0,0,0,0,840,0,No
8,13,14,0,0,5,0,0,0,0,0,0,0,840,7,No
15,14,23,0,0,4,0,0,0,0,0,0,0,390,5,No
10,13,22,0,0,5,0,0,0,0,0,0,0,396,1,No
8,13,14,0,0,5,0,0,0,0,0,0,0,840,6,No
6,13,27,0,0,5,0,0,0,0,0,0,0,234,2,No
7,10,11,0,0,4,0,0,0,0,0,0,0,234,1,No
16,14,61,0,0,6,0,0,0,0,0,0,0,234,0,No
5,5,15,0,0,3,0,0,0,0,0,0,0,348,1,No
1,4,2,0,0,4,0,0,0,0,0,0,0,424,2,No
25,18,46,0,1,5,0,0,0,0,0,0,0,332,2,No
1,5,1,0,0,4,0,0,0,0,0,0,0,325,1,No
6,6,11,0,0,3,0,0,0,0,0,0,0,348,1,No
5,3,8,0,0,3,0,0,0,0,0,0,0,325,5,No
2,5,2,0,0,4,0,0,0,0,0,0,0,325,1,No
9,7,13,0,0,3,0,0,0,0,0,0,0,424,2,No
10,13,17,0,0,5,0,0,0,0,0,0,0,840,6,No
2,5,7,0,0,3,0,0,0,0,0,0,0,234,3,No
12,14,19,0,0,5,0,0,0,0,0,0,0,840,6,No
1,5,2,0,0,3,0,0,0,0,0,0,0,336,0,No
9,7,29,0,0,2,0,0,0,0,0,0,0,222,3,No
26,15,67,0,0,4,0,0,0,0,0,0,0,840,5,No
9,9,15,0,0,3,0,0,0,0,0,0,0,507,0,No
0,0,0,0,0,4,0,0,0,0,0,0,0,879,1,No
3,3,3,0,0,4,0,0,0,0,0,0,0,339,0,Yes
5,2,5,0,0,5,0,0,0,0,0,0,0,788,0,No
11,6,21,0,0,5,0,0,0,0,0,0,0,815,1,No
1,2,2,0,0,4,0,0,0,0,0,0,0,636,0,No
3,1,3,0,0,3,0,0,0,0,0,0,0,840,2,No
0,0,0,0,0,3,0,0,0,0,0,0,0,840,1,No
7,6,9,0,0,5,0,0,0,0,0,0,0,788,0,No
7,3,7,0,0,4,0,0,0,0,0,0,0,329,0,No
5,6,32,0,0,5,0,0,0,0,0,0,0,396,0,Yes
10,4,11,0,0,3,0,0,0,0,0,0,0,221,0,No
5,3,7,0,0,5,0,0,0,0,0,0,0,809,0,No
5,4,7,0,0,5,0,0,0,0,0,0,0,809,0,No
18,6,30,0,0,5,0,0,0,0,0,0,0,879,0,No
16,8,23,0,0,5,0,0,0,0,0,0,0,704,0,Yes
6,4,6,0,0,5,0,0,0,0,0,0,0,322,0,No
13,7,21,0,1,5,0,0,0,0,0,0,0,830,0,Yes
2,3,2,0,0,4,0,0,0,0,0,0,0,636,0,No
4,0,4,0,0,1,0,0,0,0,0,0,0,221,0,No
2,0,2,0,0,3,0,0,0,0,0,0,0,559,0,No
1,1,2,0,0,3,0,0,0,0,0,0,0,329,0,No
1,1,2,0,0,3,0,0,0,0,0,0,0,329,0,No
1,1,10,0,0,3,0,0,0,0,0,0,0,326,1,No
1,0,1,0,0,3,0,0,0,0,0,0,0,840,0,No
1,0,1,0,0,3,0,0,0,0,0,0,0,879,1,No
14,2,33,0,0,3,0,0,0,0,0,0,0,248,0,No
5,0,16,0,0,4,0,0,0,0,0,0,0,788,1,No
3,0,3,0,0,3,0,0,0,0,0,0,0,598,0,No
5,0,5,0,0,4,0,0,0,0,0,0,0,788,1,No
1,0,1,0,0,3,0,0,0,0,0,0,0,788,0,No
2,1,2,0,0,3,0,0,0,0,0,0,0,396,0,No
2,0,3,0,0,3,0,0,0,0,0,0,0,788,0,No
4,0,7,0,0,4,0,0,0,0,0,0,0,788,0,No
1,0,1,0,0,3,0,0,0,0,0,0,0,840,0,No
6,1,32,0,0,5,0,0,0,0,0,0,0,396,1,No
4,0,5,0,0,5,0,0,0,0,0,0,0,396,3,No
10,1,24,0,0,5,0,0,0,0,0,0,0,396,6,No
19,0,35,0,0,3,0,0,0,0,0,0,0,396,1,No
0,0,0,0,0,3,0,0,0,0,0,0,0,840,0,No
8,0,14,0,0,4,0,0,0,0,0,0,0,396,0,No
9,0,30,0,0,1,0,0,0,0,0,0,0,209,1,No
25,0,35,0,0,1,0,0,0,0,0,0,0,209,0,No
5,7,6,0,0,3,0,0,0,0,0,0,0,788,7,No
4,4,5,0,0,3,0,0,0,0,0,0,0,325,1,No
2,3,7,0,0,1,0,0,0,0,0,0,0,201,2,No
12,0,20,0,0,1,0,0,0,0,0,0,0,201,0,No
2,0,14,0,0,3,0,0,0,0,0,0,0,746,8,No
1,1,4,0,0,4,0,0,0,0,0,0,0,353,1,Yes
8,8,12,0,0,4,0,0,0,0,0,0,0,755,3,No
1,2,20,0,0,6,0,0,0,0,0,0,0,836,8,Yes
2,6,19,0,0,1,0,0,0,0,0,0,0,187,3,No
14,13,34,24,1,4,22,22,20,20,1,8,14,432,6,Yes
1,4,9,0,0,3,0,0,0,0,0,0,0,242,0,No
3,0,3,0,0,3,0,0,0,0,0,0,0,495,2,Yes
7,21,26,0,1,4,0,0,0,0,0,0,0,329,1,No
13,3,18,0,0,5,0,0,0,0,0,0,0,833,0,No
2,0,2,0,0,3,0,0,0,0,0,0,0,840,0,No
16,1,31,0,0,3,0,0,0,0,0,0,0,868,3,Yes
25,0,42,0,0,4,0,0,0,0,0,0,0,833,0,No
9,1,18,0,0,4,0,0,0,0,0,0,0,879,1,No
6,3,12,0,0,4,0,0,0,0,0,0,0,853,0,No
9,1,9,0,0,3,0,0,0,0,0,0,0,836,1,No
8,0,12,0,0,4,0,0,0,0,0,0,0,234,0,No
22,4,33,0,0,4,0,0,0,0,0,0,0,866,3,No
8,0,10,0,0,4,0,0,0,0,0,0,0,514,0,No
7,1,7,0,0,3,0,0,0,0,0,0,0,836,1,No
0,1,0,0,0,4,0,0,0,0,0,0,0,833,0,No
19,3,25,0,0,3,0,0,0,0,0,0,0,844,1,No
4,1,4,0,0,3,0,0,0,0,0,0,0,868,0,No
39,6,49,0,0,5,0,0,0,0,0,0,0,824,1,No
23,5,31,0,0,4,0,0,0,0,0,0,0,336,0,No
16,1,17,0,0,4,0,0,0,0,0,0,0,329,0,No
0,1,0,0,0,3,0,0,0,0,0,0,0,833,0,No
6,4,6,0,0,3,0,0,0,0,0,0,0,409,0,No
14,5,14,0,0,4,0,0,0,0,0,0,0,717,0,No
13,2,27,0,0,3,0,0,0,0,0,0,0,234,1,No
6,1,8,0,0,3,0,0,0,0,0,0,0,234,0,No
5,2,7,0,0,3,0,0,0,0,0,0,0,234,0,No
4,1,4,0,0,3,0,0,0,0,0,0,0,440,0,No
15,2,15,0,0,3,0,0,0,0,0,0,0,824,0,No
0,1,0,0,0,3,0,0,0,0,0,0,0,833,0,No
17,4,18,0,0,4,0,0,0,0,0,0,0,440,1,No
4,0,4,0,0,3,0,0,0,0,0,0,0,879,0,No
6,2,6,0,0,3,0,0,0,0,0,0,0,868,0,No
5,0,10,0,0,3,0,0,0,0,0,0,0,717,0,No
4,0,4,0,0,3,0,0,0,0,0,0,0,717,0,No
8,4,11,0,0,3,0,0,0,0,0,0,0,326,0,No
11,4,19,0,0,4,0,0,0,0,0,0,0,833,0,No
5,3,7,0,0,4,0,0,0,0,0,0,0,675,0,No
3,2,4,0,0,4,0,0,0,0,0,0,0,879,0,No
4,3,6,0,0,4,0,0,0,0,0,0,0,833,0,No
0,1,0,0,0,3,0,0,0,0,0,0,0,833,0,No
0,1,0,0,0,3,0,0,0,0,0,0,0,833,0,No
5,3,7,0,0,5,0,0,0,0,0,0,0,833,0,No
0,1,0,0,0,3,0,0,0,0,0,0,0,833,0,No
24,7,30,0,0,5,0,0,0,0,0,0,0,803,1,No
0,0,0,0,0,3,0,0,0,0,0,0,0,840,0,No
11,4,19,0,0,4,0,0,0,0,0,0,0,833,0,No
5,3,7,0,0,4,0,0,0,0,0,0,0,675,0,No
3,2,4,0,0,4,0,0,0,0,0,0,0,879,0,No
4,3,6,0,0,4,0,0,0,0,0,0,0,833,0,No
0,1,0,0,0,3,0,0,0,0,0,0,0,833,0,No
0,1,0,0,0,3,0,0,0,0,0,0,0,833,0,No
5,3,7,0,0,5,0,0,0,0,0,0,0,833,0,No
0,1,0,0,0,3,0,0,0,0,0,0,0,833,0,No
39,11,72,0,0,4,0,0,0,0,0,0,0,833,0,No
53,9,96,0,0,5,0,0,0,0,0,0,0,833,1,Yes
11,4,19,0,0,4,0,0,0,0,0,0,0,833,0,No
5,3,7,0,0,4,0,0,0,0,0,0,0,675,0,No
3,2,4,0,0,4,0,0,0,0,0,0,0,879,0,No
4,3,6,0,0,4,0,0,0,0,0,0,0,833,0,No
0,2,0,0,0,3,0,0,0,0,0,0,0,833,0,No
0,2,0,0,0,3,0,0,0,0,0,0,0,833,0,No
5,3,8,0,0,5,0,0,0,0,0,0,0,833,0,No
0,2,0,0,0,3,0,0,0,0,0,0,0,833,0,No
5,2,5,0,0,3,0,0,0,0,0,0,0,879,0,No
5,2,5,0,0,3,0,0,0,0,0,0,0,879,0,No
5,2,5,0,0,3,0,0,0,0,0,0,0,879,0,No
4,2,4,0,0,3,0,0,0,0,0,0,0,879,0,No
4,1,4,0,0,3,0,0,0,0,0,0,0,840,0,No
5,2,5,0,0,3,0,0,0,0,0,0,0,879,0,No
5,4,5,0,0,3,0,0,0,0,0,0,0,879,0,No
6,3,6,0,0,3,0,0,0,0,0,0,0,879,0,No
5,3,5,0,0,3,0,0,0,0,0,0,0,879,0,No
5,4,5,0,0,3,0,0,0,0,0,0,0,879,0,No
1,0,1,0,0,3,0,0,0,0,0,0,0,840,0,No
4,2,4,0,0,3,0,0,0,0,0,0,0,440,0,No
8,5,8,0,0,3,0,0,0,0,0,0,0,840,0,No
7,2,7,0,0,3,0,0,0,0,0,0,0,879,0,No
7,3,7,0,0,3,0,0,0,0,0,0,0,879,0,No
8,4,8,0,0,3,0,0,0,0,0,0,0,879,0,No
12,5,12,0,0,3,0,0,0,0,0,0,0,879,1,No
5,4,5,0,0,3,0,0,0,0,0,0,0,879,0,No
12,5,12,0,0,3,0,0,0,0,0,0,0,879,0,No
8,3,8,0,0,3,0,0,0,0,0,0,0,879,0,No
13,5,13,0,0,3,0,0,0,0,0,0,0,879,0,No
4,2,4,0,0,3,0,0,0,0,0,0,0,440,0,No
4,2,4,0,0,5,0,0,0,0,0,0,0,879,0,No
5,2,5,0,0,3,0,0,0,0,0,0,0,879,0,No
5,4,5,0,0,3,0,0,0,0,0,0,0,879,0,No
8,2,12,0,0,3,0,0,0,0,0,0,0,879,0,No
5,2,7,0,0,3,0,0,0,0,0,0,0,868,0,No
5,2,7,0,0,3,0,0,0,0,0,0,0,868,0,No
5,3,9,0,0,3,0,0,0,0,0,0,0,868,1,No
4,5,9,0,0,3,0,0,0,0,0,0,0,868,0,No
5,2,7,0,0,3,0,0,0,0,0,0,0,868,0,No
5,6,8,0,0,3,0,0,0,0,0,0,0,868,0,No
6,5,9,0,0,3,0,0,0,0,0,0,0,868,0,No
5,4,8,0,0,3,0,0,0,0,0,0,0,242,0,No
5,6,8,0,0,3,0,0,0,0,0,0,0,803,0,No
4,3,4,0,0,3,0,0,0,0,0,0,0,336,0,No
8,6,14,0,0,3,0,0,0,0,0,0,0,409,0,No
7,3,10,0,0,3,0,0,0,0,0,0,0,234,0,No
8,4,12,0,0,3,0,0,0,0,0,0,0,234,0,No
8,12,19,0,0,3,0,0,0,0,0,0,0,824,1,No
14,8,26,0,0,3,0,0,0,0,0,0,0,868,1,No
5,6,8,0,0,3,0,0,0,0,0,0,0,868,0,No
13,8,23,0,0,4,0,0,0,0,0,0,0,868,0,No
9,7,14,0,0,3,0,0,0,0,0,0,0,868,0,No
17,16,79,0,0,6,0,0,0,0,0,0,0,623,3,No
4,3,4,0,0,3,0,0,0,0,0,0,0,336,0,No
15,13,87,0,0,6,0,0,0,0,0,0,0,879,11,No
5,2,7,0,0,3,0,0,0,0,0,0,0,868,0,No
5,6,8,0,0,3,0,0,0,0,0,0,0,868,0,No
2,0,67,0,0,1,0,0,0,0,0,0,0,80,7,No
3,3,16,0,0,3,0,0,0,0,0,0,0,850,0,Yes
1,2,2,0,0,3,0,0,0,0,0,0,0,879,0,No
1,3,6,0,0,4,0,0,0,0,0,0,0,879,0,No
1,2,2,0,0,3,0,0,0,0,0,0,0,850,0,No
0,1,0,0,0,3,0,0,0,0,0,0,0,879,0,No
0,0,0,0,0,3,0,0,0,0,0,0,0,879,0,No
1,1,1,0,0,3,0,0,0,0,0,0,0,850,0,No
0,0,0,0,0,3,0,0,0,0,0,0,0,879,1,No
0,0,0,0,0,3,0,0,0,0,0,0,0,675,0,No
2,2,8,0,0,3,0,0,0,0,0,0,0,675,2,No
0,0,0,0,0,3,0,0,0,0,0,0,0,675,0,No
2,4,11,0,0,3,0,0,0,0,0,0,0,675,3,No
0,0,0,0,0,3,0,0,0,0,0,0,0,675,0,No
2,2,5,0,0,3,0,0,0,0,0,0,0,675,2,No
1,0,2,0,0,3,0,0,0,0,0,0,0,675,0,No
0,0,0,0,0,3,0,0,0,0,0,0,0,675,0,No
2,3,6,0,0,3,0,0,0,0,0,0,0,675,2,No
4,1,7,0,0,3,0,0,0,0,0,0,0,675,0,No
0,0,0,0,0,3,0,0,0,0,0,0,0,440,0,No
2,2,7,0,0,3,0,0,0,0,0,0,0,336,1,No
0,0,0,0,0,3,0,0,0,0,0,0,0,675,0,No
2,9,21,0,0,4,0,0,0,0,0,0,0,409,3,No
0,0,0,0,0,3,0,0,0,0,0,0,0,440,0,No
2,4,10,0,1,3,0,0,0,0,0,0,0,675,2,No
0,0,0,0,0,3,0,0,0,0,0,0,0,440,0,No
2,3,6,0,0,3,0,0,0,0,0,0,0,440,2,No
0,0,0,0,0,3,0,0,0,0,0,0,0,440,0,No
2,3,8,0,0,6,0,0,0,0,0,0,0,440,2,No
0,0,0,0,0,3,0,0,0,0,0,0,0,675,0,No
0,0,0,0,0,3,0,0,0,0,0,0,0,675,0,No
2,4,12,0,0,4,0,0,0,0,0,0,0,388,1,No
2,3,9,0,0,3,0,0,0,0,0,0,0,675,2,No
0,0,0,0,0,3,0,0,0,0,0,0,0,440,0,No
2,3,9,0,0,5,0,0,0,0,0,0,0,434,1,No
0,0,0,0,0,3,0,0,0,0,0,0,0,675,0,No
4,13,19,0,0,4,0,0,0,0,0,0,0,346,1,No
0,0,0,0,0,3,0,0,0,0,0,0,0,675,0,No
2,4,8,0,0,3,0,0,0,0,0,0,0,346,1,No
1,9,25,0,0,4,0,0,0,0,0,0,0,339,1,No
0,0,0,0,0,3,0,0,0,0,0,0,0,840,0,No
12,2,58,0,0,3,0,0,0,0,0,0,0,396,0,No
0,0,0,0,0,3,0,0,0,0,0,0,0,840,0,No
0,0,0,0,0,3,0,0,0,0,0,0,0,840,0,No
1,2,1,0,0,3,0,0,0,0,0,0,0,409,1,No
1,7,22,0,0,4,0,0,0,0,0,0,0,409,2,No
18,10,71,0,0,6,0,0,0,0,0,0,0,752,10,No
12,1,32,0,1,4,0,0,0,0,0,0,0,794,0,No
1,0,1,0,0,3,0,0,0,0,0,0,0,879,0,No
1,1,1,0,0,3,0,0,0,0,0,0,0,231,1,No
19,28,100,0,1,6,0,0,0,0,0,0,0,817,13,No
0,0,0,0,0,3,0,0,0,0,0,0,0,840,0,No
5,3,6,0,0,3,0,0,0,0,0,0,0,440,0,No
0,0,0,0,0,3,0,0,0,0,0,0,0,440,0,No
2,1,2,0,0,4,0,0,0,0,0,0,0,234,0,No
0,1,0,0,0,3,0,0,0,0,0,0,0,440,0,No
1,1,10,0,0,1,0,0,0,0,0,0,0,209,0,No
6,15,44,0,0,4,0,0,0,0,0,0,0,440,5,No
4,11,15,0,0,3,0,0,0,0,0,0,0,879,6,No
2,7,3,0,0,3,0,0,0,0,0,0,0,658,0,No
8,12,15,0,0,5,0,0,0,0,0,0,0,804,2,No
11,20,35,0,0,6,0,0,0,0,0,0,0,819,5,No
5,9,9,0,0,4,0,0,0,0,0,0,0,831,0,No
0,0,0,0,0,3,0,0,0,0,0,0,0,840,0,No
10,13,21,0,0,4,0,0,0,0,0,0,0,601,4,No
5,8,9,0,0,4,0,0,0,0,0,0,0,336,3,No
13,16,22,0,0,4,0,0,0,0,0,0,0,396,4,Yes
13,19,38,88,1,5,38,38,-12,0,1,8,14,234,7,No
8,21,20,0,0,5,0,0,0,0,0,0,0,817,0,No
8,13,27,0,0,4,0,0,0,0,0,0,0,808,0,No
5,9,9,0,0,4,0,0,0,0,0,0,0,836,0,No
16,27,43,0,0,4,0,0,0,0,0,0,0,713,6,Yes
1,0,1,0,0,3,0,0,0,0,0,0,0,879,0,No
29,25,61,10,1,5,5,5,0,0,1,8,14,846,8,Yes
9,12,16,0,0,5,0,0,0,0,0,0,0,326,0,No
5,9,9,0,0,5,0,0,0,0,0,0,0,514,0,No
3,7,3,0,0,3,0,0,0,0,0,0,0,329,0,Yes
14,35,142,0,1,5,0,0,0,0,0,0,0,807,8,No
2,2,2,0,0,3,0,0,0,0,0,0,0,804,0,No
3,9,22,0,0,4,0,0,0,0,0,0,0,819,0,No
4,7,7,0,0,3,0,0,0,0,0,0,0,831,0,No
3,2,3,0,0,4,0,0,0,0,0,0,0,336,0,No
2,11,31,0,0,4,0,0,0,0,0,0,0,395,2,Yes
6,10,21,0,0,3,0,0,0,0,0,0,0,234,1,No
11,16,46,0,0,4,0,0,0,0,0,0,0,817,2,No
3,16,29,0,0,3,0,0,0,0,0,0,0,829,3,Yes
4,10,9,0,0,3,0,0,0,0,0,0,0,831,0,No
7,24,45,0,1,5,0,0,0,0,0,0,0,717,2,Yes
8,0,10,0,0,3,0,0,0,0,0,0,0,846,0,No
10,29,52,0,0,6,0,0,0,0,0,0,0,829,5,Yes
6,7,10,0,0,4,0,0,0,0,0,0,0,326,0,No
4,4,4,0,0,4,0,0,0,0,0,0,0,514,2,No
4,4,7,0,0,3,0,0,0,0,0,0,0,432,1,No
6,3,6,0,0,4,0,0,0,0,0,0,0,315,3,No
4,10,27,16,2,5,8,8,0,0,1,8,14,329,1,No
2,13,11,0,0,3,0,0,0,0,0,0,0,234,1,No
0,0,0,0,0,3,0,0,0,0,0,0,0,440,1,No
2,2,5,0,0,3,0,0,0,0,0,0,0,440,2,No
3,5,12,0,0,4,0,0,0,0,0,0,0,308,1,No
12,35,107,0,0,5,0,0,0,0,0,0,0,440,9,Yes
6,3,6,0,0,4,0,0,0,0,0,0,0,315,6,No
13,2,18,0,0,3,0,0,0,0,0,0,0,332,1,No
0,0,0,0,0,3,0,0,0,0,0,0,0,840,0,No
5,0,5,0,0,3,0,0,0,0,0,0,0,815,1,No
3,0,3,0,0,3,0,0,0,0,0,0,0,578,1,No
8,7,14,0,0,4,0,0,0,0,0,0,0,655,2,Yes
3,6,9,0,0,3,0,0,0,0,0,0,0,655,0,No
2,0,2,0,0,3,0,0,0,0,0,0,0,879,0,No
21,33,75,0,0,3,0,0,0,0,0,0,0,807,17,No
3,3,18,0,0,5,0,0,0,0,0,0,0,374,0,No
10,17,74,0,1,3,0,0,0,0,0,0,0,213,4,Yes
6,1,16,0,0,4,0,0,0,0,0,0,0,578,1,Yes
8,3,93,0,0,6,0,0,0,0,0,0,0,263,16,No
6,7,33,0,0,3,0,0,0,0,0,0,0,537,7,No
23,20,94,0,0,3,0,0,0,0,0,0,0,214,6,No
2,0,8,0,0,3,0,0,0,0,0,0,0,242,0,No
4,10,20,0,0,3,0,0,0,0,0,0,0,440,0,No
14,0,18,0,0,4,0,0,0,0,0,0,0,263,0,No
2,0,6,0,0,4,0,0,0,0,0,0,0,263,1,No
12,6,12,0,0,4,0,0,0,0,0,0,0,347,0,Yes
24,10,82,0,0,4,0,0,0,0,0,0,0,353,13,Yes
15,8,19,0,0,5,0,0,0,0,0,0,0,364,1,Yes
17,6,17,0,0,4,0,0,0,0,0,0,0,364,1,No
0,0,0,0,0,3,0,0,0,0,0,0,0,440,0,No
9,1,9,0,0,3,0,0,0,0,0,0,0,329,0,No
2,3,2,0,0,3,0,0,0,0,0,0,0,353,0,No
1,1,1,0,0,4,0,0,0,0,0,0,0,440,0,No
1,3,1,0,0,4,0,0,0,0,0,0,0,353,0,No
1,2,2,0,0,4,0,0,0,0,0,0,0,353,0,No
1,2,1,0,0,3,0,0,0,0,0,0,0,353,0,No
1,0,1,0,0,3,0,0,0,0,0,0,0,440,1,No
1,0,1,0,0,3,0,0,0,0,0,0,0,440,1,No
1,1,1,0,0,3,0,0,0,0,0,0,0,440,0,No
10,4,14,0,0,4,0,0,0,0,0,0,0,341,1,No
16,2,25,0,0,4,0,0,0,0,0,0,0,341,1,No
1,0,1,0,0,3,0,0,0,0,0,0,0,440,0,No
4,0,4,0,0,3,0,0,0,0,0,0,0,440,0,No
13,4,16,0,0,4,0,0,0,0,0,0,0,341,0,No
20,7,35,0,0,4,0,0,0,0,0,0,0,341,1,No
1,4,1,0,0,4,0,0,0,0,0,0,0,353,0,No
0,0,0,0,0,3,0,0,0,0,0,0,0,840,0,No
1,0,16,0,0,3,0,0,0,0,0,0,0,258,0,No
2,0,6,0,0,3,0,0,0,0,0,0,0,363,2,No
6,0,18,0,0,3,0,0,0,0,0,0,0,363,1,No
2,0,9,0,0,3,0,0,0,0,0,0,0,363,2,No
5,0,17,0,0,3,0,0,0,0,0,0,0,363,1,No
0,1,0,0,0,3,0,0,0,0,0,0,0,509,0,No
0,0,0,0,0,3,0,0,0,0,0,0,0,509,0,No
3,0,3,0,0,3,0,0,0,0,0,0,0,948,0,No
0,0,0,0,0,4,0,0,0,0,0,0,0,509,1,No
1,0,2,0,0,4,0,0,0,0,0,0,0,948,0,No
2,0,2,0,0,4,0,0,0,0,0,0,0,324,0,No
35,1,42,0,0,4,0,0,0,0,0,0,0,864,0,No
11,1,12,0,0,3,0,0,0,0,0,0,0,864,0,No
11,0,12,0,0,4,0,0,0,0,0,0,0,948,2,No
2,1,2,0,0,3,0,0,0,0,0,0,0,948,2,No
19,0,28,20,1,3,1,1,-18,0,2,4,4,884,0,No
13,0,17,0,0,4,0,0,0,0,0,0,0,864,0,No
2,1,2,0,0,3,0,0,0,0,0,0,0,509,0,No
1,0,1,0,0,3,0,0,0,0,0,0,0,303,0,No
12,1,14,0,0,1,0,0,0,0,0,0,0,278,0,No
10,3,10,0,0,3,0,0,0,0,0,0,0,303,0,No
7,1,11,0,0,3,0,0,0,0,0,0,0,795,0,No
5,1,6,0,0,3,0,0,0,0,0,0,0,948,1,No
25,1,52,0,0,3,0,0,0,0,0,0,0,795,1,No
3,1,3,0,0,3,0,0,0,0,0,0,0,948,0,No
0,0,0,0,0,3,0,0,0,0,0,0,0,909,1,No
16,0,20,0,0,4,0,0,0,0,0,0,0,915,0,No
10,1,14,0,0,3,0,0,0,0,0,0,0,786,0,No
2,2,2,0,0,3,0,0,0,0,0,0,0,948,0,No
8,1,13,0,0,4,0,0,0,0,0,0,0,948,2,No
4,1,4,0,0,3,0,0,0,0,0,0,0,948,0,No
12,2,12,0,0,3,0,0,0,0,0,0,0,886,0,No
19,3,25,0,0,4,0,0,0,0,0,0,0,888,0,No
5,1,7,0,0,4,0,0,0,0,0,0,0,324,0,No
4,1,4,0,0,3,0,0,0,0,0,0,0,905,0,No
4,2,4,0,0,3,0,0,0,0,0,0,0,948,0,No
8,0,8,0,0,4,0,0,0,0,0,0,0,948,1,No
24,4,27,0,0,4,0,0,0,0,0,0,0,405,0,No
16,1,17,0,1,3,0,0,0,0,0,0,0,398,0,No
2,2,2,0,0,3,0,0,0,0,0,0,0,948,0,No
5,2,5,0,0,3,0,0,0,0,0,0,0,948,0,No
8,2,8,0,0,4,0,0,0,0,0,0,0,300,0,No
14,2,14,0,0,3,0,0,0,0,0,0,0,786,0,No
3,1,3,0,0,3,0,0,0,0,0,0,0,509,0,No
24,2,32,0,0,3,0,0,0,0,0,0,0,303,0,No
36,4,36,0,0,3,0,0,0,0,0,0,0,884,0,No
25,0,31,0,0,3,0,0,0,0,0,0,0,877,0,No
8,0,12,0,0,3,0,0,0,0,0,0,0,948,0,No
14,2,14,0,0,3,0,0,0,0,0,0,0,893,0,No
20,2,21,0,0,4,0,0,0,0,0,0,0,948,0,No
2,2,2,0,0,3,0,0,0,0,0,0,0,948,0,No
16,0,16,0,0,3,0,0,0,0,0,0,0,509,0,No
2,0,2,0,0,3,0,0,0,0,0,0,0,786,0,No
12,1,16,0,0,3,0,0,0,0,0,0,0,786,0,No
10,3,13,0,0,3,0,0,0,0,0,0,0,395,0,No
29,0,39,0,0,4,0,0,0,0,0,0,0,915,1,No
2,1,2,0,0,3,0,0,0,0,0,0,0,948,0,No
4,1,4,0,0,3,0,0,0,0,0,0,0,509,0,No
20,2,21,0,0,3,0,0,0,0,0,0,0,411,0,No
18,1,24,0,0,4,0,0,0,0,0,0,0,411,1,No
10,11,52,34,2,5,18,15,2,2,5,12,12,391,0,No
2,0,4,0,0,3,0,0,0,0,0,0,0,380,3,No
7,1,13,0,0,3,0,0,0,0,0,0,0,893,0,No
1,1,10,0,0,3,0,0,0,0,0,0,0,893,2,No
8,1,8,0,0,3,0,0,0,0,0,0,0,893,0,No
0,1,0,0,0,3,0,0,0,0,0,0,0,909,2,No
20,1,24,0,0,3,0,0,0,0,0,0,0,909,0,No
0,0,0,0,0,3,0,0,0,0,0,0,0,909,0,No
2,0,2,0,0,3,0,0,0,0,0,0,0,948,2,No
5,3,9,0,0,1,0,0,0,0,0,0,0,262,0,No
1,0,1,0,0,3,0,0,0,0,0,0,0,909,1,No
0,0,0,0,0,3,0,0,0,0,0,0,0,909,0,No
15,1,17,0,0,4,0,0,0,0,0,0,0,948,1,No
7,1,8,0,0,3,0,0,0,0,0,0,0,948,1,No
1,0,1,0,0,3,0,0,0,0,0,0,0,909,0,No
0,0,0,0,0,3,0,0,0,0,0,0,0,909,0,No
2,0,3,0,0,1,0,0,0,0,0,0,0,235,1,No
4,0,16,0,0,6,0,0,0,0,0,0,0,909,4,No
48,1,52,0,0,4,0,0,0,0,0,0,0,478,0,No
1,0,1,0,0,3,0,0,0,0,0,0,0,909,0,No
0,0,0,0,0,3,0,0,0,0,0,0,0,909,0,No
0,0,0,0,0,3,0,0,0,0,0,0,0,909,0,No
1,0,2,0,0,3,0,0,0,0,0,0,0,909,0,No
0,0,0,0,0,3,0,0,0,0,0,0,0,909,0,No
0,0,0,0,0,3,0,0,0,0,0,0,0,909,0,No
2,0,4,0,0,3,0,0,0,0,0,0,0,948,3,No
4,1,6,0,0,4,0,0,0,0,0,0,0,909,0,No
3,0,6,0,0,3,0,0,0,0,0,0,0,893,1,No
2,0,9,0,0,3,0,0,0,0,0,0,0,311,0,No
1,0,1,0,0,3,0,0,0,0,0,0,0,909,0,No
0,0,0,0,0,3,0,0,0,0,0,0,0,909,0,No
0,0,0,0,0,3,0,0,0,0,0,0,0,509,0,No
0,0,0,0,0,3,0,0,0,0,0,0,0,509,0,No
0,0,0,0,0,3,0,0,0,0,0,0,0,909,0,No
6,12,16,0,0,4,0,0,0,0,0,0,0,909,0,No
1,1,8,0,0,3,0,0,0,0,0,0,0,772,1,No
11,1,13,0,0,5,0,0,0,0,0,0,0,909,0,No
0,0,0,0,0,3,0,0,0,0,0,0,0,909,0,No
3,1,4,0,0,3,0,0,0,0,0,0,0,509,2,No
7,2,16,0,0,2,0,0,0,0,0,0,0,290,0,No
2,0,2,0,0,3,0,0,0,0,0,0,0,509,0,No
10,0,21,0,0,4,0,0,0,0,0,0,0,663,3,Yes
6,2,11,0,0,3,0,0,0,0,0,0,0,668,1,No
1,7,3,0,0,3,0,0,0,0,0,0,0,578,1,No
13,2,13,0,0,3,0,0,0,0,0,0,0,800,2,No
2,0,3,0,0,3,0,0,0,0,0,0,0,948,0,No
7,0,12,0,0,3,0,0,0,0,0,0,0,508,1,No
2,0,7,0,0,3,0,0,0,0,0,0,0,628,0,No
2,2,5,0,0,3,0,0,0,0,0,0,0,626,0,No
6,0,6,0,0,3,0,0,0,0,0,0,0,948,2,No
6,8,35,2,0,2,1,1,0,0,1,1,1,291,2,No
4,3,8,0,0,3,0,0,0,0,0,0,0,401,0,No
2,0,8,0,0,3,0,0,0,0,0,0,0,737,0,No
8,2,28,0,0,1,0,0,0,0,0,0,0,290,1,No
2,6,7,0,0,4,0,0,0,0,0,0,0,508,1,No
2,3,2,0,0,3,0,0,0,0,0,0,0,578,1,No
5,10,24,0,0,3,0,0,0,0,0,0,0,408,2,No
1,1,1,0,0,3,0,0,0,0,0,0,0,909,0,No
11,6,17,6,0,4,3,3,0,0,2,5,9,909,2,No
36,18,54,0,0,5,0,0,0,0,0,0,0,909,16,No
2,4,5,0,0,4,0,0,0,0,0,0,0,803,3,No
15,14,43,0,0,5,0,0,0,0,0,0,0,884,5,No
3,5,11,0,0,4,0,0,0,0,0,0,0,884,1,No
10,5,18,0,0,3,0,0,0,0,0,0,0,857,1,No
2,7,4,0,0,3,0,0,0,0,0,0,0,303,0,No
0,0,0,0,0,3,0,0,0,0,0,0,0,909,0,No
0,0,0,0,0,3,0,0,0,0,0,0,0,509,0,No
0,0,0,0,0,3,0,0,0,0,0,0,0,909,0,No
11,4,15,0,0,5,0,0,0,0,0,0,0,908,10,No
0,2,0,0,0,4,0,0,0,0,0,0,0,907,1,No
2,5,2,0,0,4,0,0,0,0,0,0,0,857,1,No
6,12,16,0,0,5,0,0,0,0,0,0,0,398,3,No
0,3,0,0,0,4,0,0,0,0,0,0,0,398,0,No
5,13,25,0,0,5,0,0,0,0,0,0,0,408,5,Yes
0,2,0,0,0,3,0,0,0,0,0,0,0,578,0,No
3,2,3,0,0,1,0,0,0,0,0,0,0,290,0,No
35,16,64,0,0,4,0,0,0,0,0,0,0,290,6,No
10,17,69,0,0,2,0,0,0,0,0,0,0,278,4,Yes
24,14,36,0,0,4,0,0,0,0,0,0,0,909,5,No
3,7,9,0,0,5,0,0,0,0,0,0,0,878,2,Yes
28,10,34,0,0,4,0,0,0,0,0,0,0,909,13,No
2,5,5,0,0,4,0,0,0,0,0,0,0,857,1,No
1,3,3,0,0,4,0,0,0,0,0,0,0,909,3,No
1,2,1,0,0,4,0,0,0,0,0,0,0,508,0,No
23,14,39,0,0,4,0,0,0,0,0,0,0,902,40,No
9,9,37,0,0,6,0,0,0,0,0,0,0,884,6,No
4,4,7,0,0,4,0,0,0,0,0,0,0,317,2,No
2,6,3,0,0,3,0,0,0,0,0,0,0,508,0,No
9,13,11,0,0,4,0,0,0,0,0,0,0,773,2,No
11,9,16,0,0,5,0,0,0,0,0,0,0,909,0,No
24,14,37,0,0,3,0,0,0,0,0,0,0,408,8,No
8,8,16,0,0,5,0,0,0,0,0,0,0,857,3,No
2,6,11,11,1,3,6,6,1,1,3,8,8,303,3,No
2,3,2,0,0,3,0,0,0,0,0,0,0,578,0,No
7,5,11,0,0,5,0,0,0,0,0,0,0,909,3,No
3,5,11,0,0,3,0,0,0,0,0,0,0,578,1,No
0,2,0,0,0,4,0,0,0,0,0,0,0,909,2,No
0,3,0,0,0,3,0,0,0,0,0,0,0,303,0,No
8,17,38,0,0,5,0,0,0,0,0,0,0,493,3,No
8,7,12,0,0,4,0,0,0,0,0,0,0,576,0,No
1,0,1,0,0,3,0,0,0,0,0,0,0,909,0,No
8,13,14,0,0,5,0,0,0,0,0,0,0,909,7,No
15,14,23,0,0,4,0,0,0,0,0,0,0,459,5,Yes
10,13,22,0,0,5,0,0,0,0,0,0,0,465,1,Yes
8,13,14,0,0,5,0,0,0,0,0,0,0,909,6,No
6,13,27,0,0,5,0,0,0,0,0,0,0,303,2,No
7,10,11,0,0,4,0,0,0,0,0,0,0,303,1,No
16,14,61,0,0,6,0,0,0,0,0,0,0,303,0,Yes
5,5,15,0,0,3,0,0,0,0,0,0,0,417,1,No
1,4,2,0,0,4,0,0,0,0,0,0,0,493,2,No
25,18,46,0,1,5,0,0,0,0,0,0,0,401,2,No
1,5,1,0,0,4,0,0,0,0,0,0,0,394,1,No
6,6,11,0,0,3,0,0,0,0,0,0,0,417,1,No
5,3,8,48,0,3,23,23,-2,0,1,1,1,394,5,No
2,5,2,0,0,4,0,0,0,0,0,0,0,394,1,No
9,7,13,0,0,3,0,0,0,0,0,0,0,493,2,No
10,13,17,0,0,5,0,0,0,0,0,0,0,909,6,No
2,5,7,0,0,3,0,0,0,0,0,0,0,303,3,No
12,14,19,0,0,5,0,0,0,0,0,0,0,909,6,No
1,5,2,0,0,3,0,0,0,0,0,0,0,405,0,No
9,7,29,0,0,2,0,0,0,0,0,0,0,291,3,No
26,15,67,0,0,4,0,0,0,0,0,0,0,909,5,No
9,9,15,0,0,3,0,0,0,0,0,0,0,576,0,No
0,0,0,0,0,4,0,0,0,0,0,0,0,948,1,No
3,3,3,2,1,4,1,1,0,0,2,4,4,408,0,Yes
5,2,5,0,0,5,0,0,0,0,0,0,0,857,0,No
11,6,21,0,0,5,0,0,0,0,0,0,0,884,1,No
1,2,2,0,0,4,0,0,0,0,0,0,0,705,0,No
3,1,3,0,0,3,0,0,0,0,0,0,0,909,2,No
0,0,0,0,0,3,0,0,0,0,0,0,0,909,1,No
7,6,9,0,0,5,0,0,0,0,0,0,0,857,0,No
7,3,7,0,0,4,0,0,0,0,0,0,0,398,0,No
5,6,32,0,0,5,0,0,0,0,0,0,0,465,0,Yes
10,4,11,0,0,3,0,0,0,0,0,0,0,290,0,No
5,3,7,0,0,5,0,0,0,0,0,0,0,878,0,No
5,4,7,0,0,5,0,0,0,0,0,0,0,878,0,No
18,6,30,0,0,5,0,0,0,0,0,0,0,948,0,No
16,8,23,0,0,5,0,0,0,0,0,0,0,773,0,Yes
5,4,5,4,0,5,0,0,-4,0,2,5,9,391,0,No
15,7,24,17,2,5,16,12,15,11,5,13,17,899,0,No
2,3,2,0,0,4,0,0,0,0,0,0,0,705,0,No
4,0,4,0,0,1,0,0,0,0,0,0,0,290,0,No
2,0,2,0,0,3,0,0,0,0,0,0,0,628,0,No
1,1,2,0,0,3,0,0,0,0,0,0,0,398,0,No
1,1,2,0,0,3,0,0,0,0,0,0,0,398,0,No
1,1,10,0,0,3,0,0,0,0,0,0,0,395,1,No
1,0,1,0,0,3,0,0,0,0,0,0,0,909,0,No
1,0,1,0,0,3,0,0,0,0,0,0,0,948,1,No
14,2,33,0,0,3,0,0,0,0,0,0,0,317,0,No
5,0,16,0,0,4,0,0,0,0,0,0,0,857,1,No
3,0,3,0,0,3,0,0,0,0,0,0,0,667,0,No
5,0,5,0,0,4,0,0,0,0,0,0,0,857,1,No
1,0,1,0,0,3,0,0,0,0,0,0,0,857,0,No
2,1,2,0,0,3,0,0,0,0,0,0,0,465,0,No
2,0,3,0,0,3,0,0,0,0,0,0,0,857,0,No
4,0,7,0,0,4,0,0,0,0,0,0,0,857,0,No
1,0,1,0,0,3,0,0,0,0,0,0,0,909,0,No
6,1,32,0,0,5,0,0,0,0,0,0,0,465,1,No
4,0,5,0,0,5,0,0,0,0,0,0,0,465,3,No
10,1,24,0,0,5,0,0,0,0,0,0,0,465,6,No
19,0,35,0,0,3,0,0,0,0,0,0,0,465,1,No
0,0,0,0,0,3,0,0,0,0,0,0,0,909,0,No
8,0,14,0,0,4,0,0,0,0,0,0,0,465,0,No
9,0,30,0,0,1,0,0,0,0,0,0,0,278,1,No
25,0,35,0,0,1,0,0,0,0,0,0,0,278,0,No
5,7,6,0,0,3,0,0,0,0,0,0,0,857,7,No
4,4,5,0,0,3,0,0,0,0,0,0,0,394,1,No
2,3,7,0,0,1,0,0,0,0,0,0,0,270,2,No
12,0,20,0,0,1,0,0,0,0,0,0,0,270,0,No
2,0,14,0,0,3,0,0,0,0,0,0,0,815,8,No
1,1,4,7,1,4,3,3,-1,0,1,6,17,422,1,No
8,8,12,0,0,4,0,0,0,0,0,0,0,824,3,Yes
1,2,21,31,1,6,17,17,3,3,1,6,17,905,7,No
2,6,19,0,0,1,0,0,0,0,0,0,0,256,3,No
14,13,34,8,4,4,4,2,0,0,3,9,20,501,6,Yes
1,4,9,7,0,4,5,5,3,3,4,5,5,311,0,No
5,2,9,67,1,3,64,64,61,61,1,6,17,564,2,No
1,0,1,6,1,3,5,5,4,4,1,6,17,909,0,No
7,21,26,0,1,4,0,0,0,0,0,0,0,398,1,No
13,3,18,0,0,5,0,0,0,0,0,0,0,902,0,Yes
2,0,2,0,0,3,0,0,0,0,0,0,0,909,0,No
17,3,45,83,1,3,77,77,71,71,2,8,8,937,7,Yes
25,0,42,0,0,4,0,0,0,0,0,0,0,902,0,Yes
9,1,18,0,0,4,0,0,0,0,0,0,0,948,1,No
6,3,12,0,0,4,0,0,0,0,0,0,0,922,0,No
9,1,9,0,0,3,0,0,0,0,0,0,0,905,1,No
8,0,13,9,1,4,9,9,9,9,1,2,2,303,0,No
22,4,33,0,0,4,0,0,0,0,0,0,0,935,3,No
8,0,10,0,0,4,0,0,0,0,0,0,0,583,0,No
7,1,7,0,0,3,0,0,0,0,0,0,0,905,1,No
0,1,0,0,0,4,0,0,0,0,0,0,0,902,0,No
19,3,25,0,0,3,0,0,0,0,0,0,0,913,1,No
4,1,4,0,0,3,0,0,0,0,0,0,0,937,0,No
39,6,49,0,0,5,0,0,0,0,0,0,0,893,1,No
23,5,31,2,0,4,1,1,0,0,2,4,18,405,0,No
16,1,17,0,0,4,0,0,0,0,0,0,0,398,0,No
0,1,0,0,0,3,0,0,0,0,0,0,0,902,0,No
6,4,6,0,0,3,0,0,0,0,0,0,0,478,0,Yes
14,5,14,0,0,4,0,0,0,0,0,0,0,786,0,No
13,2,27,0,0,3,0,0,0,0,0,0,0,303,1,No
6,1,8,0,0,3,0,0,0,0,0,0,0,303,0,No
5,2,7,0,0,3,0,0,0,0,0,0,0,303,0,No
4,1,4,0,0,3,0,0,0,0,0,0,0,509,0,No
15,2,15,0,0,3,0,0,0,0,0,0,0,893,0,No
0,1,0,0,0,3,0,0,0,0,0,0,0,902,0,No
17,4,18,0,0,4,0,0,0,0,0,0,0,509,1,No
4,0,4,0,0,3,0,0,0,0,0,0,0,948,0,No
6,2,6,0,0,3,0,0,0,0,0,0,0,937,0,No
5,0,10,0,0,3,0,0,0,0,0,0,0,786,0,No
4,0,4,0,0,3,0,0,0,0,0,0,0,786,0,No
8,4,11,0,0,3,0,0,0,0,0,0,0,395,0,No
11,4,19,0,0,4,0,0,0,0,0,0,0,902,0,No
5,3,7,0,0,4,0,0,0,0,0,0,0,744,0,No
3,2,4,0,0,4,0,0,0,0,0,0,0,948,0,No
4,3,6,0,0,4,0,0,0,0,0,0,0,902,0,No
0,1,0,0,0,3,0,0,0,0,0,0,0,902,0,No
0,1,0,0,0,3,0,0,0,0,0,0,0,902,0,No
5,3,7,0,0,5,0,0,0,0,0,0,0,902,0,No
0,1,0,0,0,3,0,0,0,0,0,0,0,902,0,No
24,7,30,0,0,5,0,0,0,0,0,0,0,872,1,No
0,0,0,0,0,3,0,0,0,0,0,0,0,909,0,No
11,4,19,0,0,4,0,0,0,0,0,0,0,902,0,No
5,3,7,0,0,4,0,0,0,0,0,0,0,744,0,No
3,2,4,0,0,4,0,0,0,0,0,0,0,948,0,No
4,3,6,0,0,4,0,0,0,0,0,0,0,902,0,No
0,1,0,0,0,3,0,0,0,0,0,0,0,902,0,No
0,1,0,0,0,3,0,0,0,0,0,0,0,902,0,No
5,3,7,0,0,5,0,0,0,0,0,0,0,902,0,No
0,1,0,0,0,3,0,0,0,0,0,0,0,902,0,No
39,11,72,0,0,4,0,0,0,0,0,0,0,902,0,No
53,9,97,6,2,5,4,3,2,2,2,2,2,902,2,Yes
11,4,19,0,0,4,0,0,0,0,0,0,0,902,0,Yes
5,3,7,0,0,4,0,0,0,0,0,0,0,744,0,No
3,2,4,0,0,4,0,0,0,0,0,0,0,948,0,No
4,3,6,0,0,4,0,0,0,0,0,0,0,902,0,No
0,2,0,0,0,3,0,0,0,0,0,0,0,902,0,No
0,2,0,0,0,3,0,0,0,0,0,0,0,902,0,No
5,3,8,0,0,5,0,0,0,0,0,0,0,902,0,No
0,2,0,0,0,3,0,0,0,0,0,0,0,902,0,No
5,2,5,0,0,3,0,0,0,0,0,0,0,948,0,No
5,2,5,0,0,3,0,0,0,0,0,0,0,948,0,No
5,2,5,0,0,3,0,0,0,0,0,0,0,948,0,No
4,2,4,0,0,3,0,0,0,0,0,0,0,948,0,No
4,1,4,0,0,3,0,0,0,0,0,0,0,909,0,No
5,2,5,0,0,3,0,0,0,0,0,0,0,948,0,No
5,4,5,0,0,3,0,0,0,0,0,0,0,948,0,No
6,3,6,0,0,3,0,0,0,0,0,0,0,948,0,No
5,3,5,0,0,3,0,0,0,0,0,0,0,948,0,No
5,4,5,0,0,3,0,0,0,0,0,0,0,948,0,No
1,0,1,0,0,3,0,0,0,0,0,0,0,909,0,No
4,2,4,0,0,3,0,0,0,0,0,0,0,509,0,No
8,5,8,0,0,3,0,0,0,0,0,0,0,909,0,No
7,2,7,0,0,3,0,0,0,0,0,0,0,948,0,No
7,3,7,0,0,3,0,0,0,0,0,0,0,948,0,No
8,4,8,0,0,3,0,0,0,0,0,0,0,948,0,No
12,5,12,0,0,3,0,0,0,0,0,0,0,948,1,No
5,4,5,0,0,3,0,0,0,0,0,0,0,948,0,No
12,5,12,0,0,3,0,0,0,0,0,0,0,948,0,No
8,3,8,0,0,3,0,0,0,0,0,0,0,948,0,No
13,5,13,0,0,3,0,0,0,0,0,0,0,948,0,No
4,2,4,0,0,3,0,0,0,0,0,0,0,509,0,No
4,2,4,0,0,5,0,0,0,0,0,0,0,948,0,No
5,2,5,0,0,3,0,0,0,0,0,0,0,948,0,No
5,4,5,0,0,3,0,0,0,0,0,0,0,948,0,No
8,2,12,0,0,3,0,0,0,0,0,0,0,948,0,No
5,2,7,0,0,3,0,0,0,0,0,0,0,937,0,No
5,2,7,0,0,3,0,0,0,0,0,0,0,937,0,No
5,3,9,0,0,3,0,0,0,0,0,0,0,937,1,No
4,5,9,0,0,3,0,0,0,0,0,0,0,937,0,No
5,2,7,0,0,3,0,0,0,0,0,0,0,937,0,No
5,6,8,0,0,3,0,0,0,0,0,0,0,937,0,No
6,5,9,0,0,3,0,0,0,0,0,0,0,937,0,No
5,4,8,0,0,3,0,0,0,0,0,0,0,311,0,No
5,6,8,0,0,3,0,0,0,0,0,0,0,872,0,No
4,3,4,0,0,3,0,0,0,0,0,0,0,405,0,No
8,6,14,0,0,3,0,0,0,0,0,0,0,478,0,No
7,3,10,0,0,3,0,0,0,0,0,0,0,303,0,No
8,4,12,0,0,3,0,0,0,0,0,0,0,303,0,No
8,12,19,0,0,3,0,0,0,0,0,0,0,893,1,No
14,8,26,0,0,3,0,0,0,0,0,0,0,937,1,No
5,6,8,0,0,3,0,0,0,0,0,0,0,937,0,No
13,8,23,0,0,4,0,0,0,0,0,0,0,937,0,No
9,7,14,0,0,3,0,0,0,0,0,0,0,937,0,No
17,16,79,0,0,6,0,0,0,0,0,0,0,692,3,No
4,3,4,0,0,3,0,0,0,0,0,0,0,405,0,No
15,13,87,0,0,6,0,0,0,0,0,0,0,948,11,No
5,2,7,0,0,3,0,0,0,0,0,0,0,937,0,No
5,6,8,0,0,3,0,0,0,0,0,0,0,937,0,No
2,0,67,0,0,1,0,0,0,0,0,0,0,149,7,No
2,2,2,81,1,3,7,7,-67,0,2,8,8,919,0,No
1,2,2,0,0,3,0,0,0,0,0,0,0,948,0,No
1,3,6,0,0,4,0,0,0,0,0,0,0,948,0,No
1,2,2,0,0,3,0,0,0,0,0,0,0,919,0,No
0,1,0,0,0,3,0,0,0,0,0,0,0,948,0,No
0,0,0,0,0,3,0,0,0,0,0,0,0,948,0,No
1,1,1,0,0,3,0,0,0,0,0,0,0,919,0,No
0,0,0,0,0,3,0,0,0,0,0,0,0,948,1,No
0,0,0,0,0,3,0,0,0,0,0,0,0,744,0,No
2,2,8,0,0,3,0,0,0,0,0,0,0,744,2,No
0,0,0,0,0,3,0,0,0,0,0,0,0,744,0,No
2,4,11,0,0,3,0,0,0,0,0,0,0,744,3,No
0,0,0,0,0,3,0,0,0,0,0,0,0,744,0,No
2,2,5,0,0,3,0,0,0,0,0,0,0,744,2,No
1,0,2,0,0,3,0,0,0,0,0,0,0,744,0,No
0,0,0,0,0,3,0,0,0,0,0,0,0,744,0,No
2,3,6,0,0,3,0,0,0,0,0,0,0,744,2,No
4,1,7,0,0,3,0,0,0,0,0,0,0,744,0,No
0,0,0,0,0,3,0,0,0,0,0,0,0,509,0,No
2,2,7,0,0,3,0,0,0,0,0,0,0,405,1,No
0,0,0,0,0,3,0,0,0,0,0,0,0,744,0,No
2,9,21,0,0,4,0,0,0,0,0,0,0,478,3,No
0,0,0,0,0,3,0,0,0,0,0,0,0,509,0,No
2,4,10,0,1,3,0,0,0,0,0,0,0,744,2,No
0,0,0,0,0,3,0,0,0,0,0,0,0,509,0,No
2,3,6,0,0,3,0,0,0,0,0,0,0,509,2,No
0,0,0,0,0,3,0,0,0,0,0,0,0,509,0,No
2,3,8,0,0,6,0,0,0,0,0,0,0,509,2,No
0,0,0,0,0,3,0,0,0,0,0,0,0,744,0,No
0,0,0,0,0,3,0,0,0,0,0,0,0,744,0,No
2,4,12,0,0,4,0,0,0,0,0,0,0,457,1,No
2,3,9,0,0,3,0,0,0,0,0,0,0,744,2,No
0,0,0,0,0,3,0,0,0,0,0,0,0,509,0,No
2,3,9,0,0,5,0,0,0,0,0,0,0,503,1,No
0,0,0,0,0,3,0,0,0,0,0,0,0,744,0,No
4,13,24,51,0,5,30,30,9,9,1,4,6,415,1,No
0,0,0,0,0,3,0,0,0,0,0,0,0,744,0,No
2,4,8,0,0,3,0,0,0,0,0,0,0,415,1,No
1,9,25,0,0,4,0,0,0,0,0,0,0,408,1,Yes
0,0,0,0,0,3,0,0,0,0,0,0,0,909,0,No
12,2,58,0,0,3,0,0,0,0,0,0,0,465,0,No
0,0,0,0,0,3,0,0,0,0,0,0,0,909,0,No
0,0,0,0,0,3,0,0,0,0,0,0,0,909,0,No
1,2,1,0,0,3,0,0,0,0,0,0,0,478,1,No
1,7,18,42,0,5,15,15,-12,0,1,4,6,478,1,No
18,10,71,0,0,6,0,0,0,0,0,0,0,821,10,No
12,1,32,0,1,4,0,0,0,0,0,0,0,863,0,No
1,0,1,0,0,3,0,0,0,0,0,0,0,948,0,No
1,1,1,0,0,3,0,0,0,0,0,0,0,300,1,No
19,28,100,0,1,6,0,0,0,0,0,0,0,886,13,Yes
0,0,0,0,0,3,0,0,0,0,0,0,0,909,0,No
5,3,6,0,0,3,0,0,0,0,0,0,0,509,0,No
0,0,0,0,0,3,0,0,0,0,0,0,0,509,0,No
2,1,2,0,0,4,0,0,0,0,0,0,0,303,0,No
0,1,0,0,0,3,0,0,0,0,0,0,0,509,0,No
1,1,10,0,0,1,0,0,0,0,0,0,0,278,0,No
6,15,44,0,0,4,0,0,0,0,0,0,0,509,5,Yes
4,11,15,0,0,3,0,0,0,0,0,0,0,948,6,No
2,7,3,0,0,3,0,0,0,0,0,0,0,727,0,No
8,12,15,0,0,5,0,0,0,0,0,0,0,873,2,No
11,20,35,0,0,6,0,0,0,0,0,0,0,888,5,Yes
5,9,9,0,0,4,0,0,0,0,0,0,0,900,0,No
0,0,0,0,0,3,0,0,0,0,0,0,0,909,0,No
10,13,21,0,0,4,0,0,0,0,0,0,0,670,4,No
5,8,9,0,0,4,0,0,0,0,0,0,0,405,3,No
13,16,22,0,0,4,0,0,0,0,0,0,0,465,4,Yes
13,19,38,0,1,5,0,0,0,0,0,0,0,303,7,No
8,21,20,0,0,5,0,0,0,0,0,0,0,886,0,No
8,13,27,0,0,4,0,0,0,0,0,0,0,877,0,No
5,9,9,0,0,4,0,0,0,0,0,0,0,905,0,No
16,27,43,0,0,4,0,0,0,0,0,0,0,782,6,Yes
1,0,1,0,0,3,0,0,0,0,0,0,0,948,0,No
30,25,62,44,2,5,28,27,12,12,5,13,17,915,8,Yes
8,12,15,90,0,5,37,37,-16,0,2,5,9,395,0,No
5,9,9,0,0,5,0,0,0,0,0,0,0,583,0,No
3,7,3,16,1,3,7,7,-2,0,2,4,4,398,0,No
14,35,142,0,1,5,0,0,0,0,0,0,0,876,8,No
2,2,2,0,0,3,0,0,0,0,0,0,0,873,0,No
3,9,22,0,0,4,0,0,0,0,0,0,0,888,0,No
4,7,7,0,0,3,0,0,0,0,0,0,0,900,0,No
3,2,3,0,0,4,0,0,0,0,0,0,0,405,0,No
2,11,31,0,0,4,0,0,0,0,0,0,0,464,2,Yes
6,10,21,0,0,3,0,0,0,0,0,0,0,303,1,No
11,16,46,0,0,4,0,0,0,0,0,0,0,886,2,No
3,16,30,25,1,3,13,13,1,1,2,4,4,898,3,No
4,10,9,0,0,3,0,0,0,0,0,0,0,900,0,No
7,24,45,0,1,5,0,0,0,0,0,0,0,786,2,Yes
8,0,10,0,0,3,0,0,0,0,0,0,0,915,0,No
11,29,54,19,1,6,14,7,9,7,5,13,17,898,5,No
6,7,10,24,0,4,10,10,-4,0,2,5,9,395,0,No
4,4,4,0,0,4,0,0,0,0,0,0,0,583,2,No
4,4,7,0,0,3,0,0,0,0,0,0,0,501,1,No
6,3,6,0,0,4,0,0,0,0,0,0,0,384,3,No
4,10,27,0,2,5,0,0,0,0,0,0,0,398,1,No
2,13,11,0,0,3,0,0,0,0,0,0,0,303,1,No
0,0,0,0,0,3,0,0,0,0,0,0,0,509,1,No
2,2,5,0,0,3,0,0,0,0,0,0,0,509,2,No
3,5,12,0,0,4,0,0,0,0,0,0,0,377,1,No
12,38,109,35,1,5,28,28,21,21,2,8,8,509,9,No
6,3,6,0,0,4,0,0,0,0,0,0,0,384,6,No
13,2,18,0,0,3,0,0,0,0,0,0,0,401,1,No
0,0,0,0,0,3,0,0,0,0,0,0,0,909,0,No
5,0,5,0,0,3,0,0,0,0,0,0,0,884,1,No
3,0,3,0,0,3,0,0,0,0,0,0,0,647,1,No
8,7,14,2,1,4,1,1,0,0,3,8,8,724,2,No
3,6,9,0,0,3,0,0,0,0,0,0,0,724,0,No
2,0,2,0,0,3,0,0,0,0,0,0,0,948,0,No
21,33,75,0,0,3,0,0,0,0,0,0,0,876,17,No
3,3,18,0,0,5,0,0,0,0,0,0,0,443,0,No
10,17,72,8,2,3,4,4,0,0,1,1,1,282,4,Yes
7,1,17,10,1,4,7,7,4,4,3,8,8,647,1,No
8,3,93,0,0,6,0,0,0,0,0,0,0,332,16,No
6,7,33,0,0,3,0,0,0,0,0,0,0,606,7,No
23,20,94,0,0,3,0,0,0,0,0,0,0,283,6,Yes
2,0,8,0,0,3,0,0,0,0,0,0,0,311,0,No
4,10,20,0,0,3,0,0,0,0,0,0,0,509,0,No
14,0,18,0,0,4,0,0,0,0,0,0,0,332,0,No
2,0,6,0,0,4,0,0,0,0,0,0,0,332,1,No
13,7,13,12,1,4,9,9,6,6,1,6,17,416,0,No
25,12,84,66,2,4,41,28,16,9,3,10,21,422,13,Yes
15,8,19,17,1,5,8,8,-1,0,1,6,17,433,0,Yes
18,8,18,11,1,4,11,11,11,11,1,6,17,433,1,No
0,0,0,0,0,3,0,0,0,0,0,0,0,509,0,No
9,1,9,0,0,3,0,0,0,0,0,0,0,398,0,No
2,3,2,0,0,3,0,0,0,0,0,0,0,422,0,No
1,1,1,0,0,4,0,0,0,0,0,0,0,509,0,No
1,3,1,0,0,4,0,0,0,0,0,0,0,422,0,No
1,2,2,0,0,4,0,0,0,0,0,0,0,422,0,No
1,2,1,0,0,3,0,0,0,0,0,0,0,422,0,No
1,0,1,0,0,3,0,0,0,0,0,0,0,509,1,No
1,0,1,0,0,3,0,0,0,0,0,0,0,509,1,No
1,1,1,0,0,3,0,0,0,0,0,0,0,509,0,No
10,4,14,0,0,4,0,0,0,0,0,0,0,410,1,No
16,2,25,0,0,4,0,0,0,0,0,0,0,410,1,No
1,0,1,0,0,3,0,0,0,0,0,0,0,509,0,No
4,0,4,0,0,3,0,0,0,0,0,0,0,509,0,No
13,4,16,0,0,4,0,0,0,0,0,0,0,410,0,No
20,7,35,0,0,4,0,0,0,0,0,0,0,410,1,No
1,4,1,0,0,4,0,0,0,0,0,0,0,422,0,No
0,0,0,0,0,3,0,0,0,0,0,0,0,909,0,No
1,0,16,0,0,3,0,0,0,0,0,0,0,327,0,No
2,0,6,0,0,3,0,0,0,0,0,0,0,407,2,No
6,0,18,0,0,3,0,0,0,0,0,0,0,407,1,No
2,0,9,0,0,3,0,0,0,0,0,0,0,407,2,No
5,0,17,0,0,3,0,0,0,0,0,0,0,407,1,No
4,0,5,101,0,1,101,101,101,101,2,9,15,0,1,No
0,1,0,0,0,3,0,0,0,0,0,0,0,553,0,No
0,0,0,0,0,3,0,0,0,0,0,0,0,553,0,No
3,0,3,0,0,3,0,0,0,0,0,0,0,992,0,No
0,0,0,0,0,4,0,0,0,0,0,0,0,553,1,No
1,0,2,0,0,4,0,0,0,0,0,0,0,992,0,No
2,0,2,0,0,4,0,0,0,0,0,0,0,368,0,No
35,1,42,0,0,4,0,0,0,0,0,0,0,908,0,No
11,1,12,0,0,3,0,0,0,0,0,0,0,908,0,No
11,0,12,0,0,4,0,0,0,0,0,0,0,992,2,No
2,1,2,0,0,3,0,0,0,0,0,0,0,992,2,No
19,0,28,0,1,3,0,0,0,0,0,0,0,928,0,No
13,0,17,0,0,4,0,0,0,0,0,0,0,908,0,No
2,1,2,0,0,3,0,0,0,0,0,0,0,553,0,No
1,0,1,0,0,3,0,0,0,0,0,0,0,347,0,No
12,1,14,0,0,1,0,0,0,0,0,0,0,322,0,No
10,3,10,0,0,3,0,0,0,0,0,0,0,347,0,No
7,1,11,0,0,3,0,0,0,0,0,0,0,839,0,No
5,1,6,0,0,3,0,0,0,0,0,0,0,992,1,No
25,1,52,0,0,3,0,0,0,0,0,0,0,839,1,No
3,1,3,0,0,3,0,0,0,0,0,0,0,992,0,No
0,0,0,0,0,3,0,0,0,0,0,0,0,953,1,No
16,0,20,0,0,4,0,0,0,0,0,0,0,959,0,No
10,1,14,0,0,3,0,0,0,0,0,0,0,830,0,No
2,2,2,0,0,3,0,0,0,0,0,0,0,992,0,No
8,1,13,0,0,4,0,0,0,0,0,0,0,992,2,No
4,1,4,0,0,3,0,0,0,0,0,0,0,992,0,No
12,2,12,0,0,3,0,0,0,0,0,0,0,930,0,No
19,3,25,0,0,4,0,0,0,0,0,0,0,932,0,No
5,1,7,0,0,4,0,0,0,0,0,0,0,368,0,No
4,1,4,0,0,3,0,0,0,0,0,0,0,949,0,No
4,2,4,0,0,3,0,0,0,0,0,0,0,992,0,No
8,0,8,0,0,4,0,0,0,0,0,0,0,992,1,No
24,4,27,0,0,4,0,0,0,0,0,0,0,449,0,No
16,1,17,0,1,3,0,0,0,0,0,0,0,442,0,No
2,2,2,0,0,3,0,0,0,0,0,0,0,992,0,No
5,2,5,0,0,3,0,0,0,0,0,0,0,992,0,No
8,2,8,0,0,4,0,0,0,0,0,0,0,344,0,No
14,2,14,0,0,3,0,0,0,0,0,0,0,830,0,No
3,1,3,0,0,3,0,0,0,0,0,0,0,553,0,No
24,2,32,0,0,3,0,0,0,0,0,0,0,347,0,No
36,4,36,0,0,3,0,0,0,0,0,0,0,928,0,No
25,0,31,0,0,3,0,0,0,0,0,0,0,921,0,No
8,0,12,0,0,3,0,0,0,0,0,0,0,992,0,No
14,2,14,0,0,3,0,0,0,0,0,0,0,937,0,No
20,2,21,0,0,4,0,0,0,0,0,0,0,992,0,No
2,2,2,0,0,3,0,0,0,0,0,0,0,992,0,No
16,0,16,0,0,3,0,0,0,0,0,0,0,553,0,No
2,0,2,0,0,3,0,0,0,0,0,0,0,830,0,No
12,1,16,0,0,3,0,0,0,0,0,0,0,830,0,No
10,3,13,0,0,3,0,0,0,0,0,0,0,439,0,No
29,0,39,0,0,4,0,0,0,0,0,0,0,959,1,No
2,1,2,0,0,3,0,0,0,0,0,0,0,992,0,No
4,1,4,0,0,3,0,0,0,0,0,0,0,553,0,No
20,2,21,0,0,3,0,0,0,0,0,0,0,455,0,No
18,1,24,0,0,4,0,0,0,0,0,0,0,455,1,No
10,11,52,0,2,5,0,0,0,0,0,0,0,435,0,No
2,0,4,0,0,3,0,0,0,0,0,0,0,424,3,No
7,1,13,0,0,3,0,0,0,0,0,0,0,937,0,No
1,1,10,0,0,3,0,0,0,0,0,0,0,937,2,No
8,1,8,0,0,3,0,0,0,0,0,0,0,937,0,No
0,1,0,0,0,3,0,0,0,0,0,0,0,953,2,No
20,1,24,0,0,3,0,0,0,0,0,0,0,953,0,No
0,0,0,0,0,3,0,0,0,0,0,0,0,953,0,No
2,0,2,0,0,3,0,0,0,0,0,0,0,992,2,No
5,3,9,0,0,1,0,0,0,0,0,0,0,306,0,No
1,0,1,0,0,3,0,0,0,0,0,0,0,953,1,No
0,0,0,0,0,3,0,0,0,0,0,0,0,953,0,No
15,1,17,0,0,4,0,0,0,0,0,0,0,992,1,No
7,1,8,0,0,3,0,0,0,0,0,0,0,992,1,No
1,0,1,0,0,3,0,0,0,0,0,0,0,953,0,No
0,0,0,0,0,3,0,0,0,0,0,0,0,953,0,No
2,0,3,0,0,1,0,0,0,0,0,0,0,279,1,No
4,0,16,0,0,6,0,0,0,0,0,0,0,953,4,No
48,1,52,0,0,4,0,0,0,0,0,0,0,522,0,No
1,0,1,0,0,3,0,0,0,0,0,0,0,953,0,No
0,0,0,0,0,3,0,0,0,0,0,0,0,953,0,No
0,0,0,0,0,3,0,0,0,0,0,0,0,953,0,No
1,0,2,0,0,3,0,0,0,0,0,0,0,953,0,No
0,0,0,0,0,3,0,0,0,0,0,0,0,953,0,No
0,0,0,0,0,3,0,0,0,0,0,0,0,953,0,No
2,0,4,0,0,3,0,0,0,0,0,0,0,992,3,No
4,1,6,0,0,4,0,0,0,0,0,0,0,953,0,No
3,0,6,0,0,3,0,0,0,0,0,0,0,937,1,No
2,0,9,0,0,3,0,0,0,0,0,0,0,355,0,No
1,0,1,0,0,3,0,0,0,0,0,0,0,953,0,No
0,0,0,0,0,3,0,0,0,0,0,0,0,953,0,No
0,0,0,0,0,3,0,0,0,0,0,0,0,553,0,No
0,0,0,0,0,3,0,0,0,0,0,0,0,553,0,No
0,0,0,0,0,3,0,0,0,0,0,0,0,953,0,No
6,12,16,0,0,4,0,0,0,0,0,0,0,953,0,No
1,1,8,0,0,3,0,0,0,0,0,0,0,816,1,No
11,1,13,0,0,5,0,0,0,0,0,0,0,953,0,No
0,0,0,0,0,3,0,0,0,0,0,0,0,953,0,No
3,1,4,0,0,3,0,0,0,0,0,0,0,553,2,No
7,2,16,0,0,2,0,0,0,0,0,0,0,334,0,No
2,0,2,0,0,3,0,0,0,0,0,0,0,553,0,No
10,0,21,0,0,4,0,0,0,0,0,0,0,707,3,No
6,2,11,0,0,3,0,0,0,0,0,0,0,712,1,No
1,7,3,0,0,3,0,0,0,0,0,0,0,622,1,Yes
13,2,13,0,0,3,0,0,0,0,0,0,0,844,2,No
2,0,3,0,0,3,0,0,0,0,0,0,0,992,0,No
7,0,12,0,0,3,0,0,0,0,0,0,0,552,1,No
2,0,7,0,0,3,0,0,0,0,0,0,0,672,0,Yes
2,2,5,0,0,3,0,0,0,0,0,0,0,670,0,Yes
6,0,6,0,0,3,0,0,0,0,0,0,0,992,2,No
6,8,35,0,0,2,0,0,0,0,0,0,0,335,2,No
4,3,8,0,0,3,0,0,0,0,0,0,0,445,0,Yes
2,0,8,0,0,3,0,0,0,0,0,0,0,781,0,No
8,2,28,0,0,1,0,0,0,0,0,0,0,334,1,No
2,6,7,0,0,4,0,0,0,0,0,0,0,552,1,Yes
2,3,2,0,0,3,0,0,0,0,0,0,0,622,1,No
5,10,24,0,0,3,0,0,0,0,0,0,0,452,2,Yes
1,1,1,0,0,3,0,0,0,0,0,0,0,953,0,Yes
11,6,17,0,0,4,0,0,0,0,0,0,0,953,2,No
36,18,54,0,0,5,0,0,0,0,0,0,0,953,16,Yes
2,4,5,0,0,4,0,0,0,0,0,0,0,847,3,Yes
15,14,43,0,0,5,0,0,0,0,0,0,0,928,5,Yes
3,5,11,0,0,4,0,0,0,0,0,0,0,928,1,Yes
10,5,18,0,0,3,0,0,0,0,0,0,0,901,1,Yes
2,7,4,0,0,3,0,0,0,0,0,0,0,347,0,Yes
0,0,0,0,0,3,0,0,0,0,0,0,0,953,0,No
0,0,0,0,0,3,0,0,0,0,0,0,0,553,0,No
0,0,0,0,0,3,0,0,0,0,0,0,0,953,0,No
11,4,15,0,0,5,0,0,0,0,0,0,0,952,10,Yes
0,2,0,0,0,4,0,0,0,0,0,0,0,951,1,No
2,5,2,0,0,4,0,0,0,0,0,0,0,901,1,Yes
6,12,16,53,0,5,29,29,5,5,1,2,2,442,3,Yes
0,3,0,0,0,4,0,0,0,0,0,0,0,442,0,Yes
5,13,25,0,0,5,0,0,0,0,0,0,0,452,5,Yes
0,2,0,0,0,3,0,0,0,0,0,0,0,622,0,Yes
3,2,3,0,0,1,0,0,0,0,0,0,0,334,0,No
35,16,64,0,0,4,0,0,0,0,0,0,0,334,6,Yes
10,17,69,24,0,2,12,12,0,0,1,2,3,322,4,Yes
24,14,36,0,0,4,0,0,0,0,0,0,0,953,5,Yes
3,7,9,0,0,5,0,0,0,0,0,0,0,922,2,Yes
28,10,34,0,0,4,0,0,0,0,0,0,0,953,13,Yes
2,5,5,0,0,4,0,0,0,0,0,0,0,901,1,Yes
1,3,3,0,0,4,0,0,0,0,0,0,0,953,3,Yes
1,2,1,0,0,4,0,0,0,0,0,0,0,552,0,No
23,14,39,0,0,4,0,0,0,0,0,0,0,946,40,Yes
9,9,37,0,0,6,0,0,0,0,0,0,0,928,6,Yes
4,4,7,0,0,4,0,0,0,0,0,0,0,361,2,Yes
2,6,3,0,0,3,0,0,0,0,0,0,0,552,0,Yes
9,13,11,0,0,4,0,0,0,0,0,0,0,817,2,Yes
11,9,16,2,0,5,1,1,0,0,1,1,1,953,0,Yes
24,14,37,0,0,3,0,0,0,0,0,0,0,452,8,Yes
8,8,16,0,0,5,0,0,0,0,0,0,0,901,3,Yes
2,6,11,0,1,3,0,0,0,0,0,0,0,347,3,No
2,3,2,0,0,3,0,0,0,0,0,0,0,622,0,No
7,5,11,0,0,5,0,0,0,0,0,0,0,953,3,Yes
3,5,11,0,0,3,0,0,0,0,0,0,0,622,1,Yes
0,2,0,0,0,4,0,0,0,0,0,0,0,953,2,No
0,3,0,0,0,3,0,0,0,0,0,0,0,347,0,No
8,17,38,0,0,5,0,0,0,0,0,0,0,537,3,Yes
8,7,12,0,0,4,0,0,0,0,0,0,0,620,0,Yes
1,0,1,0,0,3,0,0,0,0,0,0,0,953,0,No
8,13,14,0,0,5,0,0,0,0,0,0,0,953,7,Yes
15,14,23,4,0,5,2,2,0,0,1,2,4,503,5,Yes
10,13,22,0,0,5,0,0,0,0,0,0,0,509,1,Yes
8,13,14,0,0,5,0,0,0,0,0,0,0,953,6,Yes
6,13,27,0,0,5,0,0,0,0,0,0,0,347,2,Yes
7,10,11,0,0,4,0,0,0,0,0,0,0,347,1,No
16,14,61,0,0,6,0,0,0,0,0,0,0,347,0,Yes
5,5,15,6,0,4,3,3,0,0,1,2,4,461,1,No
1,4,2,0,0,4,0,0,0,0,0,0,0,537,2,Yes
25,18,44,15,1,5,2,2,-11,0,1,2,3,445,3,Yes
1,5,1,0,0,4,0,0,0,0,0,0,0,438,1,No
6,6,11,4,0,4,2,2,0,0,1,2,4,461,1,No
5,3,8,0,0,3,0,0,0,0,0,0,0,438,5,No
2,5,2,0,0,4,0,0,0,0,0,0,0,438,1,Yes
9,7,13,0,0,3,0,0,0,0,0,0,0,537,2,No
10,13,17,0,0,5,0,0,0,0,0,0,0,953,6,Yes
2,5,7,0,0,3,0,0,0,0,0,0,0,347,3,No
12,14,19,0,0,5,0,0,0,0,0,0,0,953,6,Yes
1,5,2,0,0,3,0,0,0,0,0,0,0,449,0,No
9,7,29,0,0,2,0,0,0,0,0,0,0,335,3,No
26,15,67,50,0,4,26,26,2,2,1,2,3,953,5,Yes
9,9,15,0,0,3,0,0,0,0,0,0,0,620,0,Yes
0,0,0,0,0,4,0,0,0,0,0,0,0,992,1,No
3,3,3,0,1,4,0,0,0,0,0,0,0,452,0,Yes
5,2,5,0,0,5,0,0,0,0,0,0,0,901,0,No
11,6,21,0,0,5,0,0,0,0,0,0,0,928,1,Yes
1,2,2,0,0,4,0,0,0,0,0,0,0,749,0,No
3,1,3,0,0,3,0,0,0,0,0,0,0,953,2,No
0,0,0,0,0,3,0,0,0,0,0,0,0,953,1,No
7,6,9,0,0,5,0,0,0,0,0,0,0,901,0,No
7,3,7,0,0,4,0,0,0,0,0,0,0,442,0,No
5,6,33,30,0,5,16,16,2,15,2,3,5,509,0,Yes
10,4,11,0,0,3,0,0,0,0,0,0,0,334,0,No
5,3,7,0,0,5,0,0,0,0,0,0,0,922,0,No
5,4,7,0,0,5,0,0,0,0,0,0,0,922,0,No
18,6,30,0,0,5,0,0,0,0,0,0,0,992,0,No
16,8,23,0,0,5,0,0,0,0,0,0,0,817,0,Yes
5,4,5,0,0,5,0,0,0,0,0,0,0,435,0,No
15,7,24,0,2,5,0,0,0,0,0,0,0,943,0,No
2,3,2,0,0,4,0,0,0,0,0,0,0,749,0,No
4,0,4,0,0,1,0,0,0,0,0,0,0,334,0,No
2,0,2,0,0,3,0,0,0,0,0,0,0,672,0,Yes
1,1,2,0,0,3,0,0,0,0,0,0,0,442,0,No
1,1,2,0,0,3,0,0,0,0,0,0,0,442,0,No
1,1,10,0,0,3,0,0,0,0,0,0,0,439,1,Yes
1,0,1,0,0,3,0,0,0,0,0,0,0,953,0,No
1,0,1,0,0,3,0,0,0,0,0,0,0,992,1,No
14,2,33,0,0,3,0,0,0,0,0,0,0,361,0,Yes
5,0,16,0,0,4,0,0,0,0,0,0,0,901,1,Yes
3,0,3,0,0,3,0,0,0,0,0,0,0,711,0,No
5,0,5,0,0,4,0,0,0,0,0,0,0,901,1,Yes
1,0,1,0,0,3,0,0,0,0,0,0,0,901,0,No
2,1,2,0,0,3,0,0,0,0,0,0,0,509,0,Yes
2,0,3,0,0,3,0,0,0,0,0,0,0,901,0,No
4,0,7,0,0,4,0,0,0,0,0,0,0,901,0,No
1,0,1,0,0,3,0,0,0,0,0,0,0,953,0,No
6,1,32,0,0,5,0,0,0,0,0,0,0,509,1,No
4,0,5,0,0,5,0,0,0,0,0,0,0,509,3,No
10,1,24,0,0,5,0,0,0,0,0,0,0,509,6,No
19,0,35,0,0,3,0,0,0,0,0,0,0,509,1,Yes
0,0,0,0,0,3,0,0,0,0,0,0,0,953,0,No
8,0,14,0,0,4,0,0,0,0,0,0,0,509,0,No
9,0,30,0,0,1,0,0,0,0,0,0,0,322,1,No
25,0,35,0,0,1,0,0,0,0,0,0,0,322,0,Yes
5,7,6,0,0,3,0,0,0,0,0,0,0,901,7,Yes
4,4,5,0,0,3,0,0,0,0,0,0,0,438,1,No
2,3,7,0,0,1,0,0,0,0,0,0,0,314,2,No
12,0,20,0,0,1,0,0,0,0,0,0,0,314,0,No
2,0,14,0,0,3,0,0,0,0,0,0,0,859,8,No
1,1,4,0,1,4,0,0,0,0,0,0,0,466,1,No
8,8,12,6,0,4,4,4,2,2,2,9,15,868,3,No
1,2,21,0,1,6,0,0,0,0,0,0,0,949,7,No
2,6,19,0,0,1,0,0,0,0,0,0,0,300,3,No
14,13,34,0,4,4,0,0,0,0,0,0,0,545,6,No
1,4,9,0,0,4,0,0,0,0,0,0,0,355,0,No
5,2,9,0,1,3,0,0,0,0,0,0,0,608,2,Yes
1,0,1,0,1,3,0,0,0,0,0,0,0,953,0,No
7,21,26,56,1,4,31,19,6,3,2,6,8,442,1,No
13,3,18,6,1,5,3,3,0,0,1,7,10,946,0,No
2,0,2,0,0,3,0,0,0,0,0,0,0,953,0,No
17,4,48,8,2,4,7,7,6,6,1,3,3,981,7,No
25,0,42,81,2,4,38,37,-5,22,2,11,15,946,0,No
9,1,18,0,0,4,0,0,0,0,0,0,0,992,1,Yes
6,3,12,0,0,4,0,0,0,0,0,0,0,966,0,No
9,1,9,0,0,3,0,0,0,0,0,0,0,949,1,No
8,0,13,0,1,4,0,0,0,0,0,0,0,347,0,No
22,4,33,3,0,4,3,3,3,3,1,1,1,979,3,No
8,0,10,0,0,4,0,0,0,0,0,0,0,627,0,No
7,1,7,0,0,3,0,0,0,0,0,0,0,949,1,No
0,1,0,0,0,4,0,0,0,0,0,0,0,946,0,No
19,3,25,0,0,3,0,0,0,0,0,0,0,957,1,No
4,1,4,0,0,3,0,0,0,0,0,0,0,981,0,No
39,6,49,0,0,5,0,0,0,0,0,0,0,937,1,No
23,5,31,0,0,4,0,0,0,0,0,0,0,449,0,No
16,1,17,0,0,4,0,0,0,0,0,0,0,442,0,No
0,1,0,0,0,3,0,0,0,0,0,0,0,946,0,No
6,4,6,0,0,3,0,0,0,0,0,0,0,522,0,No
14,5,14,0,0,4,0,0,0,0,0,0,0,830,0,No
13,2,27,0,0,3,0,0,0,0,0,0,0,347,1,No
6,1,8,0,0,3,0,0,0,0,0,0,0,347,0,No
5,2,7,0,0,3,0,0,0,0,0,0,0,347,0,No
4,1,4,0,0,3,0,0,0,0,0,0,0,553,0,No
15,2,15,0,0,3,0,0,0,0,0,0,0,937,0,No
0,1,0,0,0,3,0,0,0,0,0,0,0,946,0,No
17,4,18,0,0,4,0,0,0,0,0,0,0,553,1,No
4,0,4,0,0,3,0,0,0,0,0,0,0,992,0,No
6,2,6,0,0,3,0,0,0,0,0,0,0,981,0,No
5,0,10,0,0,3,0,0,0,0,0,0,0,830,0,No
4,0,4,0,0,3,0,0,0,0,0,0,0,830,0,No
8,4,11,0,0,3,0,0,0,0,0,0,0,439,0,No
11,4,19,0,0,4,0,0,0,0,0,0,0,946,0,No
5,3,7,0,0,4,0,0,0,0,0,0,0,788,0,No
3,2,4,0,0,4,0,0,0,0,0,0,0,992,0,No
4,3,6,0,0,4,0,0,0,0,0,0,0,946,0,No
0,1,0,0,0,3,0,0,0,0,0,0,0,946,0,No
0,1,0,0,0,3,0,0,0,0,0,0,0,946,0,No
5,3,7,0,0,5,0,0,0,0,0,0,0,946,0,No
0,1,0,0,0,3,0,0,0,0,0,0,0,946,0,No
24,7,30,0,0,5,0,0,0,0,0,0,0,916,1,No
0,0,0,0,0,3,0,0,0,0,0,0,0,953,0,No
11,4,19,0,0,4,0,0,0,0,0,0,0,946,0,No
5,3,7,0,0,4,0,0,0,0,0,0,0,788,0,No
3,2,4,0,0,4,0,0,0,0,0,0,0,992,0,No
4,3,6,0,0,4,0,0,0,0,0,0,0,946,0,No
0,1,0,0,0,3,0,0,0,0,0,0,0,946,0,No
0,1,0,0,0,3,0,0,0,0,0,0,0,946,0,No
5,3,7,0,0,5,0,0,0,0,0,0,0,946,0,No
0,1,0,0,0,3,0,0,0,0,0,0,0,946,0,No
39,11,72,0,0,4,0,0,0,0,0,0,0,946,0,No
53,9,97,49,3,5,41,41,33,33,4,12,12,946,2,Yes
11,4,19,2,1,4,1,1,0,0,1,7,10,946,0,No
5,3,7,0,0,4,0,0,0,0,0,0,0,788,0,No
3,2,4,0,0,4,0,0,0,0,0,0,0,992,0,No
4,3,6,0,0,4,0,0,0,0,0,0,0,946,0,No
0,2,0,0,0,3,0,0,0,0,0,0,0,946,0,No
0,2,0,0,0,3,0,0,0,0,0,0,0,946,0,No
5,3,8,0,0,5,0,0,0,0,0,0,0,946,0,No
0,2,0,0,0,3,0,0,0,0,0,0,0,946,0,No
5,2,5,0,0,3,0,0,0,0,0,0,0,992,0,No
5,2,5,0,0,3,0,0,0,0,0,0,0,992,0,No
5,2,5,0,0,3,0,0,0,0,0,0,0,992,0,No
4,2,4,0,0,3,0,0,0,0,0,0,0,992,0,No
4,1,4,0,0,3,0,0,0,0,0,0,0,953,0,No
5,2,5,0,0,3,0,0,0,0,0,0,0,992,0,No
5,4,5,0,0,3,0,0,0,0,0,0,0,992,0,No
6,3,6,0,0,3,0,0,0,0,0,0,0,992,0,No
5,3,5,0,0,3,0,0,0,0,0,0,0,992,0,No
5,4,5,0,0,3,0,0,0,0,0,0,0,992,0,No
1,0,1,0,0,3,0,0,0,0,0,0,0,953,0,No
4,2,4,0,0,3,0,0,0,0,0,0,0,553,0,No
8,5,8,0,0,3,0,0,0,0,0,0,0,953,0,No
7,2,7,0,0,3,0,0,0,0,0,0,0,992,0,No
7,3,7,0,0,3,0,0,0,0,0,0,0,992,0,No
8,4,8,0,0,3,0,0,0,0,0,0,0,992,0,No
12,5,12,0,0,3,0,0,0,0,0,0,0,992,1,No
5,4,5,0,0,3,0,0,0,0,0,0,0,992,0,No
12,5,12,0,0,3,0,0,0,0,0,0,0,992,0,No
8,3,8,0,0,3,0,0,0,0,0,0,0,992,0,No
13,5,13,0,0,3,0,0,0,0,0,0,0,992,0,No
4,2,4,0,0,3,0,0,0,0,0,0,0,553,0,No
4,2,4,0,0,5,0,0,0,0,0,0,0,992,0,No
5,2,5,0,0,3,0,0,0,0,0,0,0,992,0,No
5,4,5,0,0,3,0,0,0,0,0,0,0,992,0,No
8,2,12,0,0,3,0,0,0,0,0,0,0,992,0,No
5,2,7,0,0,3,0,0,0,0,0,0,0,981,0,No
5,2,7,0,0,3,0,0,0,0,0,0,0,981,0,No
5,3,9,0,0,3,0,0,0,0,0,0,0,981,1,No
4,5,9,0,0,3,0,0,0,0,0,0,0,981,0,No
5,2,7,0,0,3,0,0,0,0,0,0,0,981,0,No
5,6,8,0,0,3,0,0,0,0,0,0,0,981,0,No
6,5,9,0,0,3,0,0,0,0,0,0,0,981,0,No
5,4,8,0,0,3,0,0,0,0,0,0,0,355,0,No
5,6,8,0,0,3,0,0,0,0,0,0,0,916,0,No
4,3,4,0,0,3,0,0,0,0,0,0,0,449,0,No
8,6,14,0,0,3,0,0,0,0,0,0,0,522,0,No
7,3,10,0,0,3,0,0,0,0,0,0,0,347,0,No
8,4,12,0,0,3,0,0,0,0,0,0,0,347,0,No
8,12,19,0,0,3,0,0,0,0,0,0,0,937,1,No
14,8,26,0,0,3,0,0,0,0,0,0,0,981,1,No
5,6,8,0,0,3,0,0,0,0,0,0,0,981,0,No
13,8,23,0,0,4,0,0,0,0,0,0,0,981,0,No
9,7,14,0,0,3,0,0,0,0,0,0,0,981,0,No
17,16,79,0,0,6,0,0,0,0,0,0,0,736,3,No
4,3,4,0,0,3,0,0,0,0,0,0,0,449,0,No
15,13,87,0,0,6,0,0,0,0,0,0,0,992,11,No
5,2,7,0,0,3,0,0,0,0,0,0,0,981,0,No
5,6,8,0,0,3,0,0,0,0,0,0,0,981,0,No
2,0,67,0,0,1,0,0,0,0,0,0,0,193,7,No
2,2,2,0,1,3,0,0,0,0,0,0,0,963,0,No
1,2,2,0,0,3,0,0,0,0,0,0,0,992,0,No
1,3,6,0,0,4,0,0,0,0,0,0,0,992,0,No
1,2,2,0,0,3,0,0,0,0,0,0,0,963,0,No
0,1,0,0,0,3,0,0,0,0,0,0,0,992,0,No
0,0,0,0,0,3,0,0,0,0,0,0,0,992,0,No
1,1,1,0,0,3,0,0,0,0,0,0,0,963,0,No
0,0,0,0,0,3,0,0,0,0,0,0,0,992,1,No
0,0,0,0,0,3,0,0,0,0,0,0,0,788,0,No
2,2,8,0,0,3,0,0,0,0,0,0,0,788,2,No
0,0,0,0,0,3,0,0,0,0,0,0,0,788,0,No
2,4,11,0,0,3,0,0,0,0,0,0,0,788,3,No
0,0,0,0,0,3,0,0,0,0,0,0,0,788,0,No
2,2,5,0,0,3,0,0,0,0,0,0,0,788,2,No
1,0,2,0,0,3,0,0,0,0,0,0,0,788,0,No
0,0,0,0,0,3,0,0,0,0,0,0,0,788,0,No
2,3,6,0,0,3,0,0,0,0,0,0,0,788,2,No
4,1,7,0,0,3,0,0,0,0,0,0,0,788,0,No
0,0,0,0,0,3,0,0,0,0,0,0,0,553,0,No
2,2,7,0,0,3,0,0,0,0,0,0,0,449,1,No
0,0,0,0,0,3,0,0,0,0,0,0,0,788,0,No
2,9,21,0,0,4,0,0,0,0,0,0,0,522,3,No
0,0,0,0,0,3,0,0,0,0,0,0,0,553,0,No
2,4,10,0,1,3,0,0,0,0,0,0,0,788,2,No
0,0,0,0,0,3,0,0,0,0,0,0,0,553,0,No
2,3,6,0,0,3,0,0,0,0,0,0,0,553,2,No
0,0,0,0,0,3,0,0,0,0,0,0,0,553,0,No
2,3,8,0,0,6,0,0,0,0,0,0,0,553,2,No
0,0,0,0,0,3,0,0,0,0,0,0,0,788,0,No
0,0,0,0,0,3,0,0,0,0,0,0,0,788,0,No
2,4,12,0,0,4,0,0,0,0,0,0,0,501,1,No
2,3,9,0,0,3,0,0,0,0,0,0,0,788,2,No
0,0,0,0,0,3,0,0,0,0,0,0,0,553,0,No
2,3,9,0,0,5,0,0,0,0,0,0,0,547,1,No
0,0,0,0,0,3,0,0,0,0,0,0,0,788,0,No
4,13,24,0,0,5,0,0,0,0,0,0,0,459,1,No
0,0,0,0,0,3,0,0,0,0,0,0,0,788,0,No
2,4,8,0,0,3,0,0,0,0,0,0,0,459,1,No
1,9,25,11,1,4,6,6,1,1,1,7,10,452,1,Yes
0,0,0,0,0,3,0,0,0,0,0,0,0,953,0,No
12,2,58,0,0,3,0,0,0,0,0,0,0,509,0,No
0,0,0,0,0,3,0,0,0,0,0,0,0,953,0,No
0,0,0,0,0,3,0,0,0,0,0,0,0,953,0,No
1,2,1,0,0,3,0,0,0,0,0,0,0,522,1,No
1,7,18,0,0,5,0,0,0,0,0,0,0,522,1,No
10,0,20,241,0,1,231,223,221,223,3,11,18,0,2,No
19,11,94,267,0,6,185,181,103,130,3,11,18,865,40,No
12,1,32,0,1,4,0,0,0,0,0,0,0,907,0,No
1,0,1,0,0,3,0,0,0,0,0,0,0,992,0,No
1,1,1,0,0,3,0,0,0,0,0,0,0,344,1,No
19,28,106,379,5,6,208,105,37,83,7,26,36,930,13,Yes
0,0,0,23,0,4,23,23,23,23,2,9,15,953,1,No
0,0,0,0,0,3,0,0,0,0,0,0,0,953,0,No
5,3,6,0,0,3,0,0,0,0,0,0,0,553,0,No
0,0,0,0,0,3,0,0,0,0,0,0,0,553,0,No
2,1,2,0,0,4,0,0,0,0,0,0,0,347,0,No
0,1,0,0,0,3,0,0,0,0,0,0,0,553,0,No
1,1,10,0,0,1,0,0,0,0,0,0,0,322,0,No
6,15,44,0,0,4,0,0,0,0,0,0,0,553,5,No
4,11,15,0,0,3,0,0,0,0,0,0,0,992,6,No
2,7,3,0,0,3,0,0,0,0,0,0,0,771,0,No
8,12,15,0,0,5,0,0,0,0,0,0,0,917,2,Yes
11,20,35,4,0,6,2,2,0,0,2,9,15,932,5,Yes
5,9,9,0,0,4,0,0,0,0,0,0,0,944,0,Yes
0,0,0,0,0,3,0,0,0,0,0,0,0,953,0,No
10,13,21,0,0,4,0,0,0,0,0,0,0,714,4,No
5,8,9,0,0,4,0,0,0,0,0,0,0,449,3,No
13,16,22,0,0,4,0,0,0,0,0,0,0,509,4,Yes
13,19,38,0,1,5,0,0,0,0,0,0,0,347,7,No
8,21,20,32,0,5,16,16,0,0,2,9,15,930,0,Yes
8,13,27,0,0,4,0,0,0,0,0,0,0,921,0,No
5,9,9,0,0,4,0,0,0,0,0,0,0,949,0,Yes
16,27,43,0,0,4,0,0,0,0,0,0,0,826,6,Yes
1,0,1,0,0,3,0,0,0,0,0,0,0,992,0,No
30,25,62,9,3,5,5,5,1,1,1,7,10,959,8,No
8,12,15,0,0,5,0,0,0,0,0,0,0,439,0,No
5,9,9,0,0,5,0,0,0,0,0,0,0,627,0,Yes
3,7,3,0,1,3,0,0,0,0,0,0,0,442,0,No
14,35,142,0,1,5,0,0,0,0,0,0,0,920,8,Yes
2,2,2,0,0,3,0,0,0,0,0,0,0,917,0,No
3,9,22,0,0,4,0,0,0,0,0,0,0,932,0,No
4,7,7,0,0,3,0,0,0,0,0,0,0,944,0,No
3,2,3,0,0,4,0,0,0,0,0,0,0,449,0,No
2,11,31,0,0,4,0,0,0,0,0,0,0,508,2,Yes
6,10,21,0,0,3,0,0,0,0,0,0,0,347,1,No
11,16,46,0,0,4,0,0,0,0,0,0,0,930,2,No
3,16,30,0,1,3,0,0,0,0,0,0,0,942,3,No
4,10,9,0,0,3,0,0,0,0,0,0,0,944,0,No
7,24,45,0,1,5,0,0,0,0,0,0,0,830,2,Yes
8,0,10,0,0,3,0,0,0,0,0,0,0,959,0,No
11,30,56,24,1,6,17,17,10,10,1,2,2,942,5,No
6,7,10,0,0,4,0,0,0,0,0,0,0,439,0,No
4,4,4,0,0,4,0,0,0,0,0,0,0,627,2,No
4,4,7,0,0,3,0,0,0,0,0,0,0,545,1,No
6,3,6,0,0,4,0,0,0,0,0,0,0,428,3,No
4,10,27,91,2,5,49,42,7,4,2,6,8,442,1,No
2,13,11,0,0,3,0,0,0,0,0,0,0,347,1,No
0,0,0,0,0,3,0,0,0,0,0,0,0,553,1,No
2,2,5,0,0,3,0,0,0,0,0,0,0,553,2,No
3,5,12,0,0,4,0,0,0,0,0,0,0,421,1,No
12,38,109,0,1,5,0,0,0,0,0,0,0,553,9,Yes
6,3,6,0,0,4,0,0,0,0,0,0,0,428,6,No
13,2,18,0,0,3,0,0,0,0,0,0,0,445,1,No
0,0,0,0,0,3,0,0,0,0,0,0,0,953,0,No
5,0,5,0,0,3,0,0,0,0,0,0,0,928,1,No
8,7,14,0,1,4,0,0,0,0,0,0,0,768,2,Yes
3,6,9,0,0,3,0,0,0,0,0,0,0,768,0,Yes
2,0,2,0,0,3,0,0,0,0,0,0,0,992,0,No
21,33,75,0,0,3,0,0,0,0,0,0,0,920,17,No
3,3,18,0,0,5,0,0,0,0,0,0,0,487,0,No
10,18,76,31,4,4,20,11,9,6,2,3,3,326,4,Yes
7,1,17,0,1,4,0,0,0,0,0,0,0,691,1,No
8,3,93,0,0,6,0,0,0,0,0,0,0,376,16,Yes
6,7,33,0,0,3,0,0,0,0,0,0,0,650,7,No
20,19,73,204,2,3,72,55,-60,8,3,13,17,327,5,No
2,0,8,0,0,3,0,0,0,0,0,0,0,355,0,No
4,10,20,0,0,3,0,0,0,0,0,0,0,553,0,No
14,0,18,0,0,4,0,0,0,0,0,0,0,376,0,Yes
2,0,6,0,0,4,0,0,0,0,0,0,0,376,1,No
13,7,13,0,1,4,0,0,0,0,0,0,0,460,0,Yes
25,12,84,14,3,4,8,8,2,2,1,7,10,466,13,Yes
15,8,19,10,2,5,5,5,0,0,1,7,10,477,0,Yes
18,8,18,0,1,4,0,0,0,0,0,0,0,477,1,No
0,0,0,0,0,3,0,0,0,0,0,0,0,553,0,Yes
9,1,9,0,0,3,0,0,0,0,0,0,0,442,0,Yes
2,3,2,0,0,3,0,0,0,0,0,0,0,466,0,No
1,1,1,0,0,4,0,0,0,0,0,0,0,553,0,No
1,3,1,0,0,4,0,0,0,0,0,0,0,466,0,No
1,2,2,0,0,4,0,0,0,0,0,0,0,466,0,Yes
1,2,1,0,0,3,0,0,0,0,0,0,0,466,0,No
1,0,1,0,0,3,0,0,0,0,0,0,0,553,1,No
1,0,1,0,0,3,0,0,0,0,0,0,0,553,1,No
1,1,1,0,0,3,0,0,0,0,0,0,0,553,0,No
10,4,14,0,0,4,0,0,0,0,0,0,0,454,1,No
16,2,25,0,0,4,0,0,0,0,0,0,0,454,1,No
1,0,1,0,0,3,0,0,0,0,0,0,0,553,0,No
4,0,4,0,0,3,0,0,0,0,0,0,0,553,0,No
13,4,16,0,0,4,0,0,0,0,0,0,0,454,0,No
20,7,35,0,0,4,0,0,0,0,0,0,0,454,1,No
1,4,1,0,0,4,0,0,0,0,0,0,0,466,0,No
0,0,0,0,0,3,0,0,0,0,0,0,0,953,0,No
1,0,16,0,0,3,0,0,0,0,0,0,0,371,0,No
2,0,6,0,0,3,0,0,0,0,0,0,0,442,2,No
6,0,18,0,0,3,0,0,0,0,0,0,0,442,1,No
2,0,9,0,0,3,0,0,0,0,0,0,0,442,2,Yes
5,0,17,0,0,3,0,0,0,0,0,0,0,442,1,No
4,0,5,0,0,1,0,0,0,0,0,0,0,35,1,No
0,1,0,0,0,3,0,0,0,0,0,0,0,588,0,No
0,0,0,0,0,3,0,0,0,0,0,0,0,588,0,No
3,0,3,0,0,3,0,0,0,0,0,0,0,1027,0,No
0,0,0,0,0,4,0,0,0,0,0,0,0,588,1,No
1,0,2,0,0,4,0,0,0,0,0,0,0,1027,0,No
2,0,2,0,0,4,0,0,0,0,0,0,0,403,0,No
35,1,42,0,0,4,0,0,0,0,0,0,0,943,0,No
11,1,12,0,0,3,0,0,0,0,0,0,0,943,0,No
11,0,12,0,0,4,0,0,0,0,0,0,0,1027,2,No
2,1,2,0,0,3,0,0,0,0,0,0,0,1027,2,No
19,0,28,0,1,3,0,0,0,0,0,0,0,963,0,No
13,0,17,0,0,4,0,0,0,0,0,0,0,943,0,No
2,1,2,0,0,3,0,0,0,0,0,0,0,588,0,No
1,0,1,0,0,3,0,0,0,0,0,0,0,382,0,No
12,1,14,0,0,1,0,0,0,0,0,0,0,357,0,No
10,3,10,0,0,3,0,0,0,0,0,0,0,382,0,No
7,1,11,0,0,3,0,0,0,0,0,0,0,874,0,No
5,1,6,0,0,3,0,0,0,0,0,0,0,1027,1,No
25,1,52,0,0,3,0,0,0,0,0,0,0,874,1,No
3,1,3,0,0,3,0,0,0,0,0,0,0,1027,0,No
0,0,0,0,0,3,0,0,0,0,0,0,0,988,1,No
16,0,20,0,0,4,0,0,0,0,0,0,0,994,0,No
10,1,14,0,0,3,0,0,0,0,0,0,0,865,0,No
2,2,2,0,0,3,0,0,0,0,0,0,0,1027,0,No
8,1,13,0,0,4,0,0,0,0,0,0,0,1027,2,No
4,1,4,0,0,3,0,0,0,0,0,0,0,1027,0,No
12,2,12,0,0,3,0,0,0,0,0,0,0,965,0,No
19,3,25,0,0,4,0,0,0,0,0,0,0,967,0,No
5,1,7,0,0,4,0,0,0,0,0,0,0,403,0,No
4,1,4,0,0,3,0,0,0,0,0,0,0,984,0,No
4,2,4,0,0,3,0,0,0,0,0,0,0,1027,0,No
8,0,8,0,0,4,0,0,0,0,0,0,0,1027,1,No
24,4,27,0,0,4,0,0,0,0,0,0,0,484,0,No
16,1,17,0,1,3,0,0,0,0,0,0,0,477,0,No
2,2,2,0,0,3,0,0,0,0,0,0,0,1027,0,No
5,2,5,0,0,3,0,0,0,0,0,0,0,1027,0,No
8,2,8,0,0,4,0,0,0,0,0,0,0,379,0,No
14,2,14,0,0,3,0,0,0,0,0,0,0,865,0,No
3,1,3,0,0,3,0,0,0,0,0,0,0,588,0,No
24,2,32,0,0,3,0,0,0,0,0,0,0,382,0,No
36,4,36,0,0,3,0,0,0,0,0,0,0,963,0,No
25,0,31,0,0,3,0,0,0,0,0,0,0,956,0,No
8,0,12,0,0,3,0,0,0,0,0,0,0,1027,0,No
14,2,14,0,0,3,0,0,0,0,0,0,0,972,0,No
20,2,21,0,0,4,0,0,0,0,0,0,0,1027,0,No
2,2,2,0,0,3,0,0,0,0,0,0,0,1027,0,No
16,0,16,0,0,3,0,0,0,0,0,0,0,588,0,No
2,0,2,0,0,3,0,0,0,0,0,0,0,865,0,No
12,1,16,0,0,3,0,0,0,0,0,0,0,865,0,No
10,3,13,0,0,3,0,0,0,0,0,0,0,474,0,No
29,0,39,0,0,4,0,0,0,0,0,0,0,994,1,No
2,1,2,0,0,3,0,0,0,0,0,0,0,1027,0,No
4,1,4,0,0,3,0,0,0,0,0,0,0,588,0,No
20,2,21,0,0,3,0,0,0,0,0,0,0,490,0,No
20,1,26,12,0,4,11,11,10,10,3,7,15,490,1,No
10,11,52,0,2,5,0,0,0,0,0,0,0,470,0,No
2,0,4,0,0,3,0,0,0,0,0,0,0,459,3,No
7,1,13,0,0,3,0,0,0,0,0,0,0,972,0,No
1,1,10,0,0,3,0,0,0,0,0,0,0,972,2,No
8,1,8,0,0,3,0,0,0,0,0,0,0,972,0,No
0,1,0,0,0,3,0,0,0,0,0,0,0,988,2,No
20,1,24,0,0,3,0,0,0,0,0,0,0,988,0,No
0,0,0,0,0,3,0,0,0,0,0,0,0,988,0,No
2,0,2,0,0,3,0,0,0,0,0,0,0,1027,2,No
5,3,9,0,0,1,0,0,0,0,0,0,0,341,0,No
1,0,1,0,0,3,0,0,0,0,0,0,0,988,1,No
0,0,0,0,0,3,0,0,0,0,0,0,0,988,0,No
15,1,17,0,0,4,0,0,0,0,0,0,0,1027,1,No
7,1,8,0,0,3,0,0,0,0,0,0,0,1027,1,No
1,0,1,0,0,3,0,0,0,0,0,0,0,988,0,No
0,0,0,0,0,3,0,0,0,0,0,0,0,988,0,No
2,0,3,0,0,1,0,0,0,0,0,0,0,314,1,No
4,0,16,0,0,6,0,0,0,0,0,0,0,988,4,No
48,1,52,0,0,4,0,0,0,0,0,0,0,557,0,No
1,0,1,0,0,3,0,0,0,0,0,0,0,988,0,No
0,0,0,0,0,3,0,0,0,0,0,0,0,988,0,No
0,0,0,0,0,3,0,0,0,0,0,0,0,988,0,No
1,0,2,0,0,3,0,0,0,0,0,0,0,988,0,No
0,0,0,0,0,3,0,0,0,0,0,0,0,988,0,No
0,0,0,0,0,3,0,0,0,0,0,0,0,988,0,No
2,0,4,0,0,3,0,0,0,0,0,0,0,1027,3,No
4,1,6,0,0,4,0,0,0,0,0,0,0,988,0,No
3,0,6,0,0,3,0,0,0,0,0,0,0,972,1,No
2,0,9,0,0,3,0,0,0,0,0,0,0,390,0,No
1,0,1,0,0,3,0,0,0,0,0,0,0,988,0,No
0,0,0,0,0,3,0,0,0,0,0,0,0,988,0,No
0,0,0,0,0,3,0,0,0,0,0,0,0,588,0,No
0,0,0,0,0,3,0,0,0,0,0,0,0,588,0,No
0,0,0,0,0,3,0,0,0,0,0,0,0,988,0,No
6,12,16,0,0,4,0,0,0,0,0,0,0,988,0,No
1,1,8,0,0,3,0,0,0,0,0,0,0,851,1,No
11,1,13,0,0,5,0,0,0,0,0,0,0,988,0,No
0,0,0,0,0,3,0,0,0,0,0,0,0,988,0,No
3,1,4,0,0,3,0,0,0,0,0,0,0,588,2,No
7,2,16,0,0,2,0,0,0,0,0,0,0,369,0,No
2,0,2,0,0,3,0,0,0,0,0,0,0,588,0,No
10,0,21,0,0,4,0,0,0,0,0,0,0,742,3,No
6,2,11,0,0,3,0,0,0,0,0,0,0,747,1,No
1,7,3,0,0,3,0,0,0,0,0,0,0,657,1,Yes
13,2,13,0,0,3,0,0,0,0,0,0,0,879,2,No
2,0,3,0,0,3,0,0,0,0,0,0,0,1027,0,No
7,0,12,0,0,3,0,0,0,0,0,0,0,587,1,No
2,0,7,0,0,3,0,0,0,0,0,0,0,707,0,Yes
2,2,5,1,1,4,1,1,1,1,1,1,1,705,0,Yes
6,0,6,0,0,3,0,0,0,0,0,0,0,1027,2,No
6,8,35,0,0,2,0,0,0,0,0,0,0,370,2,No
4,3,8,0,0,3,0,0,0,0,0,0,0,480,0,Yes
2,0,8,2,0,4,1,1,0,0,1,2,2,816,0,No
8,2,28,0,0,1,0,0,0,0,0,0,0,369,1,No
2,7,7,25,0,4,12,12,-1,0,1,9,92,587,1,No
2,3,2,0,0,3,0,0,0,0,0,0,0,657,1,No
8,11,27,72,0,3,60,58,48,48,4,16,107,487,2,No
1,1,1,2,0,3,1,1,0,0,1,9,92,988,0,No
11,7,17,8,0,4,5,5,2,2,1,9,92,988,2,No
36,19,54,50,0,5,25,25,0,0,1,9,92,988,16,No
2,5,5,20,0,4,10,10,0,0,1,9,92,882,3,No
15,14,43,75,1,5,38,23,1,1,3,14,100,963,5,No
3,6,11,17,0,4,8,8,-1,0,1,9,92,963,1,No
10,6,18,19,0,3,9,9,-1,0,1,9,92,936,1,Yes
2,7,4,16,1,3,9,5,2,3,4,10,21,382,0,Yes
0,0,0,0,0,3,0,0,0,0,0,0,0,988,0,No
0,0,0,0,0,3,0,0,0,0,0,0,0,588,0,No
0,0,0,0,0,3,0,0,0,0,0,0,0,988,0,No
11,5,15,13,0,5,7,7,1,1,1,9,92,987,10,No
0,2,0,0,0,4,0,0,0,0,0,0,0,986,1,No
2,5,2,18,0,4,9,7,0,0,2,11,100,936,1,No
6,13,16,16,1,5,9,8,2,1,2,10,97,477,3,No
0,3,0,0,0,4,0,0,0,0,0,0,0,477,0,No
5,14,25,43,0,5,23,23,3,3,1,9,92,487,5,No
0,2,0,0,0,3,0,0,0,0,0,0,0,657,0,No
3,2,3,0,0,1,0,0,0,0,0,0,0,369,0,No
35,17,64,39,0,4,20,11,1,2,4,16,107,369,5,Yes
10,17,69,65,0,2,35,35,5,5,1,9,92,357,4,No
24,15,36,40,0,4,20,20,0,0,1,9,92,988,5,Yes
3,8,9,56,4,5,34,20,12,11,7,19,111,957,2,No
28,11,34,39,0,5,17,17,-5,0,2,11,94,988,13,Yes
2,6,5,29,1,5,14,12,-1,1,3,12,105,936,1,Yes
1,3,3,0,0,4,0,0,0,0,0,0,0,988,3,No
1,2,1,0,0,4,0,0,0,0,0,0,0,587,0,No
23,15,39,29,0,4,14,13,-1,0,2,10,93,981,40,Yes
9,9,37,38,0,6,18,15,-2,0,2,11,100,963,6,No
4,5,7,32,0,4,15,15,-2,0,1,9,92,396,2,No
2,6,3,0,0,3,0,0,0,0,0,0,0,587,0,No
9,13,11,28,0,4,14,14,0,0,1,9,92,852,2,Yes
11,9,16,4,0,5,2,2,0,0,1,9,92,988,0,No
24,14,37,36,0,3,18,16,0,0,4,16,107,487,8,No
8,8,16,30,1,5,14,11,-2,1,6,19,120,936,3,Yes
2,6,11,0,1,3,0,0,0,0,0,0,0,382,3,No
2,3,2,0,0,3,0,0,0,0,0,0,0,657,0,No
7,7,11,59,1,5,31,19,3,4,2,10,97,988,3,Yes
2,1,2,38,0,3,18,18,-2,0,3,7,15,657,0,No
3,6,11,18,0,3,8,8,-2,0,1,9,92,657,1,No
0,2,0,0,0,4,0,0,0,0,0,0,0,988,2,No
0,3,0,0,0,3,0,0,0,0,0,0,0,382,0,No
8,17,38,0,0,5,0,0,0,0,0,0,0,572,3,No
8,7,12,39,0,4,18,14,-3,1,2,11,100,655,0,No
1,0,1,0,0,3,0,0,0,0,0,0,0,988,0,No
8,12,14,33,0,5,17,17,1,1,1,9,92,988,6,Yes
15,16,23,53,0,5,26,26,-1,0,1,9,92,538,4,No
10,13,22,22,1,5,10,10,-2,0,1,8,15,544,1,No
8,14,14,37,0,5,19,19,1,1,1,9,92,988,7,Yes
6,13,27,49,1,5,24,14,-1,1,3,14,100,382,2,No
7,10,11,0,0,4,0,0,0,0,0,0,0,382,1,No
15,14,60,58,2,6,26,19,-6,0,4,14,99,382,0,Yes
5,5,15,0,0,4,0,0,0,0,0,0,0,496,1,No
1,4,2,0,0,4,0,0,0,0,0,0,0,572,2,No
25,19,44,29,2,5,15,9,1,2,2,12,98,480,3,Yes
1,5,1,25,0,4,12,9,-1,0,2,11,100,473,1,No
6,6,11,0,0,4,0,0,0,0,0,0,0,496,1,No
5,3,8,16,0,3,7,7,-2,0,1,9,92,473,5,No
1,5,1,73,0,4,32,21,-9,0,2,11,100,473,0,Yes
9,8,13,27,0,3,13,13,-1,0,1,9,92,572,2,No
10,14,17,44,0,5,21,21,-2,0,1,9,92,988,6,Yes
2,5,7,12,0,3,9,9,6,6,1,3,4,382,3,No
12,15,19,18,0,5,9,9,0,0,1,9,92,988,6,Yes
1,5,2,0,0,3,0,0,0,0,0,0,0,484,0,No
9,7,29,16,0,2,8,8,0,0,1,9,92,370,3,No
26,16,67,40,0,4,24,24,8,8,1,9,92,988,5,No
9,9,15,56,0,3,27,15,-2,0,2,11,100,655,0,No
0,0,0,0,0,4,0,0,0,0,0,0,0,1027,1,No
3,3,3,0,1,4,0,0,0,0,0,0,0,487,0,Yes
5,2,5,0,0,5,0,0,0,0,0,0,0,936,0,No
11,6,21,47,1,5,24,17,1,1,3,5,6,963,1,No
1,2,2,0,0,4,0,0,0,0,0,0,0,784,0,No
3,1,3,0,0,3,0,0,0,0,0,0,0,988,2,No
0,0,0,0,0,3,0,0,0,0,0,0,0,988,1,No
7,6,9,0,0,5,0,0,0,0,0,0,0,936,0,No
7,3,7,0,0,4,0,0,0,0,0,0,0,477,0,No
5,6,33,0,0,5,0,0,0,0,0,0,0,544,0,Yes
10,4,11,0,0,3,0,0,0,0,0,0,0,369,0,No
5,3,7,0,0,5,0,0,0,0,0,0,0,957,0,No
5,4,7,0,0,5,0,0,0,0,0,0,0,957,0,No
18,6,30,0,0,5,0,0,0,0,0,0,0,1027,0,Yes
16,8,23,0,0,5,0,0,0,0,0,0,0,852,0,Yes
5,4,5,0,0,5,0,0,0,0,0,0,0,470,0,No
15,7,24,0,2,5,0,0,0,0,0,0,0,978,0,No
2,3,2,0,0,4,0,0,0,0,0,0,0,784,0,No
4,0,4,0,0,1,0,0,0,0,0,0,0,369,0,No
2,1,3,69,0,1,69,69,69,69,1,9,92,11,0,No
2,1,3,38,0,3,21,21,4,4,1,9,92,707,0,No
2,0,2,12,0,3,6,6,0,0,1,9,92,707,0,No
1,1,2,0,0,3,0,0,0,0,0,0,0,477,0,No
1,1,2,0,0,3,0,0,0,0,0,0,0,477,0,No
1,1,10,0,0,3,0,0,0,0,0,0,0,474,1,Yes
1,0,1,0,0,3,0,0,0,0,0,0,0,988,0,No
1,0,1,0,0,3,0,0,0,0,0,0,0,1027,1,Yes
14,3,33,70,0,3,33,33,-4,0,1,9,92,396,0,No
5,0,16,0,0,4,0,0,0,0,0,0,0,936,1,No
3,0,3,0,0,3,0,0,0,0,0,0,0,746,0,No
5,0,5,0,0,4,0,0,0,0,0,0,0,936,1,Yes
1,0,1,0,0,3,0,0,0,0,0,0,0,936,0,No
1,1,1,13,1,3,3,3,-7,0,1,8,15,544,0,No
2,0,3,0,0,3,0,0,0,0,0,0,0,936,0,No
4,0,7,0,0,4,0,0,0,0,0,0,0,936,0,Yes
1,0,1,0,0,3,0,0,0,0,0,0,0,988,0,No
6,1,32,0,0,5,0,0,0,0,0,0,0,544,1,No
4,0,5,0,0,5,0,0,0,0,0,0,0,544,3,No
10,1,24,0,0,5,0,0,0,0,0,0,0,544,6,Yes
19,0,35,0,0,3,0,0,0,0,0,0,0,544,1,No
0,0,0,0,0,3,0,0,0,0,0,0,0,988,0,No
8,0,14,0,0,4,0,0,0,0,0,0,0,544,0,No
7,0,11,138,1,1,138,138,138,138,1,8,15,18,0,No
9,0,30,0,0,1,0,0,0,0,0,0,0,357,1,No
26,0,36,9,1,1,7,7,5,5,1,8,15,357,0,No
5,8,6,34,0,3,17,17,0,0,1,9,92,936,7,No
4,4,5,0,0,3,0,0,0,0,0,0,0,473,1,No
2,3,7,0,0,1,0,0,0,0,0,0,0,349,2,No
12,0,20,0,0,1,0,0,0,0,0,0,0,349,0,No
2,0,14,0,0,3,0,0,0,0,0,0,0,894,8,No
1,1,4,0,1,4,0,0,0,0,0,0,0,501,1,No
8,8,12,0,0,4,0,0,0,0,0,0,0,903,3,No
1,2,21,0,1,6,0,0,0,0,0,0,0,984,7,No
2,6,19,0,0,1,0,0,0,0,0,0,0,335,3,Yes
14,13,34,0,4,4,0,0,0,0,0,0,0,580,6,No
1,4,9,0,0,4,0,0,0,0,0,0,0,390,0,No
5,2,9,0,1,3,0,0,0,0,0,0,0,643,2,No
1,0,1,0,1,3,0,0,0,0,0,0,0,988,0,No
7,21,26,0,1,4,0,0,0,0,0,0,0,477,1,No
13,3,18,0,1,5,0,0,0,0,0,0,0,981,0,No
2,0,2,0,0,3,0,0,0,0,0,0,0,988,0,No
17,4,48,0,2,4,0,0,0,0,0,0,0,1016,7,Yes
25,0,42,0,2,4,0,0,0,0,0,0,0,981,0,No
9,1,18,4,1,4,2,2,0,0,1,8,10,1027,1,Yes
6,3,12,0,0,4,0,0,0,0,0,0,0,1001,0,No
9,1,9,0,0,3,0,0,0,0,0,0,0,984,1,No
8,0,13,0,1,4,0,0,0,0,0,0,0,382,0,No
22,4,33,0,0,4,0,0,0,0,0,0,0,1014,3,Yes
8,0,10,0,0,4,0,0,0,0,0,0,0,662,0,No
7,1,7,0,0,3,0,0,0,0,0,0,0,984,1,No
0,1,0,0,0,4,0,0,0,0,0,0,0,981,0,No
19,3,25,0,0,3,0,0,0,0,0,0,0,992,1,No
4,1,4,0,0,3,0,0,0,0,0,0,0,1016,0,No
39,6,49,0,0,5,0,0,0,0,0,0,0,972,1,No
23,5,31,0,0,4,0,0,0,0,0,0,0,484,0,No
16,1,17,0,0,4,0,0,0,0,0,0,0,477,0,No
0,1,0,0,0,3,0,0,0,0,0,0,0,981,0,No
6,4,6,0,0,3,0,0,0,0,0,0,0,557,0,No
14,5,14,0,0,4,0,0,0,0,0,0,0,865,0,No
13,2,27,0,0,3,0,0,0,0,0,0,0,382,1,No
6,1,8,0,0,3,0,0,0,0,0,0,0,382,0,No
5,2,7,0,0,3,0,0,0,0,0,0,0,382,0,No
4,1,4,0,0,3,0,0,0,0,0,0,0,588,0,No
15,2,15,0,0,3,0,0,0,0,0,0,0,972,0,No
0,1,0,0,0,3,0,0,0,0,0,0,0,981,0,No
17,4,18,0,0,4,0,0,0,0,0,0,0,588,1,No
4,0,4,0,0,3,0,0,0,0,0,0,0,1027,0,No
6,2,6,0,0,3,0,0,0,0,0,0,0,1016,0,No
5,0,10,0,0,3,0,0,0,0,0,0,0,865,0,No
4,0,4,0,0,3,0,0,0,0,0,0,0,865,0,No
8,4,11,0,0,3,0,0,0,0,0,0,0,474,0,No
11,4,19,0,0,4,0,0,0,0,0,0,0,981,0,No
5,3,7,0,0,4,0,0,0,0,0,0,0,823,0,No
3,2,4,0,0,4,0,0,0,0,0,0,0,1027,0,No
4,3,6,0,0,4,0,0,0,0,0,0,0,981,0,No
0,1,0,0,0,3,0,0,0,0,0,0,0,981,0,No
0,1,0,0,0,3,0,0,0,0,0,0,0,981,0,No
5,3,7,0,0,5,0,0,0,0,0,0,0,981,0,No
0,1,0,0,0,3,0,0,0,0,0,0,0,981,0,No
24,7,30,0,0,5,0,0,0,0,0,0,0,951,1,No
0,0,0,0,0,3,0,0,0,0,0,0,0,988,0,No
11,4,19,0,0,4,0,0,0,0,0,0,0,981,0,No
5,3,7,0,0,4,0,0,0,0,0,0,0,823,0,No
3,2,4,0,0,4,0,0,0,0,0,0,0,1027,0,No
4,3,6,0,0,4,0,0,0,0,0,0,0,981,0,No
0,1,0,0,0,3,0,0,0,0,0,0,0,981,0,No
0,1,0,0,0,3,0,0,0,0,0,0,0,981,0,No
5,3,7,0,0,5,0,0,0,0,0,0,0,981,0,No
0,1,0,0,0,3,0,0,0,0,0,0,0,981,0,No
39,11,72,0,0,4,0,0,0,0,0,0,0,981,0,No
53,9,98,4,4,5,2,2,0,0,1,8,10,981,2,No
11,4,19,0,1,4,0,0,0,0,0,0,0,981,0,No
5,3,7,0,0,4,0,0,0,0,0,0,0,823,0,No
3,2,4,0,0,4,0,0,0,0,0,0,0,1027,0,No
4,3,6,0,0,4,0,0,0,0,0,0,0,981,0,No
0,2,0,0,0,3,0,0,0,0,0,0,0,981,0,No
0,2,0,0,0,3,0,0,0,0,0,0,0,981,0,No
5,3,8,0,0,5,0,0,0,0,0,0,0,981,0,No
0,2,0,0,0,3,0,0,0,0,0,0,0,981,0,No
5,2,5,0,0,3,0,0,0,0,0,0,0,1027,0,No
5,2,5,0,0,3,0,0,0,0,0,0,0,1027,0,No
5,2,5,0,0,3,0,0,0,0,0,0,0,1027,0,No
4,2,4,0,0,3,0,0,0,0,0,0,0,1027,0,No
4,1,4,0,0,3,0,0,0,0,0,0,0,988,0,No
5,2,5,0,0,3,0,0,0,0,0,0,0,1027,0,No
5,4,5,0,0,3,0,0,0,0,0,0,0,1027,0,No
6,3,6,0,0,3,0,0,0,0,0,0,0,1027,0,No
5,3,5,0,0,3,0,0,0,0,0,0,0,1027,0,No
5,4,5,0,0,3,0,0,0,0,0,0,0,1027,0,No
1,0,1,0,0,3,0,0,0,0,0,0,0,988,0,No
4,2,4,0,0,3,0,0,0,0,0,0,0,588,0,No
8,5,8,0,0,3,0,0,0,0,0,0,0,988,0,Yes
7,2,7,0,0,3,0,0,0,0,0,0,0,1027,0,No
7,3,7,0,0,3,0,0,0,0,0,0,0,1027,0,No
8,4,8,0,0,3,0,0,0,0,0,0,0,1027,0,No
12,5,12,0,0,3,0,0,0,0,0,0,0,1027,1,No
5,4,5,0,0,3,0,0,0,0,0,0,0,1027,0,No
12,5,12,0,0,3,0,0,0,0,0,0,0,1027,0,No
8,3,8,0,0,3,0,0,0,0,0,0,0,1027,0,No
13,5,13,0,0,3,0,0,0,0,0,0,0,1027,0,No
4,2,4,0,0,3,0,0,0,0,0,0,0,588,0,No
4,2,4,0,0,5,0,0,0,0,0,0,0,1027,0,No
5,2,5,0,0,3,0,0,0,0,0,0,0,1027,0,No
5,4,5,0,0,3,0,0,0,0,0,0,0,1027,0,No
8,2,12,0,0,3,0,0,0,0,0,0,0,1027,0,No
5,2,7,0,0,3,0,0,0,0,0,0,0,1016,0,No
5,2,7,0,0,3,0,0,0,0,0,0,0,1016,0,No
5,3,9,0,0,3,0,0,0,0,0,0,0,1016,1,No
4,5,9,0,0,3,0,0,0,0,0,0,0,1016,0,No
5,2,7,0,0,3,0,0,0,0,0,0,0,1016,0,No
5,6,8,0,0,3,0,0,0,0,0,0,0,1016,0,No
6,5,9,0,0,3,0,0,0,0,0,0,0,1016,0,No
5,4,8,0,0,3,0,0,0,0,0,0,0,390,0,No
5,6,8,0,0,3,0,0,0,0,0,0,0,951,0,No
4,3,4,0,0,3,0,0,0,0,0,0,0,484,0,No
8,6,14,0,0,3,0,0,0,0,0,0,0,557,0,No
7,3,10,0,0,3,0,0,0,0,0,0,0,382,0,No
8,4,12,0,0,3,0,0,0,0,0,0,0,382,0,No
8,12,19,0,0,3,0,0,0,0,0,0,0,972,1,No
14,8,26,0,0,3,0,0,0,0,0,0,0,1016,1,No
5,6,8,0,0,3,0,0,0,0,0,0,0,1016,0,No
13,8,23,0,0,4,0,0,0,0,0,0,0,1016,0,No
9,7,14,0,0,3,0,0,0,0,0,0,0,1016,0,No
17,16,80,8,0,6,7,7,6,6,3,7,15,771,4,No
4,3,4,0,0,3,0,0,0,0,0,0,0,484,0,No
15,13,87,0,0,6,0,0,0,0,0,0,0,1027,11,No
5,2,7,0,0,3,0,0,0,0,0,0,0,1016,0,No
5,6,8,0,0,3,0,0,0,0,0,0,0,1016,0,No
2,0,67,0,0,1,0,0,0,0,0,0,0,228,7,No
2,2,2,0,1,3,0,0,0,0,0,0,0,998,0,No
1,2,2,0,0,3,0,0,0,0,0,0,0,1027,0,No
1,3,6,0,0,4,0,0,0,0,0,0,0,1027,0,No
1,2,2,0,0,3,0,0,0,0,0,0,0,998,0,No
0,1,0,0,0,3,0,0,0,0,0,0,0,1027,0,No
0,0,0,0,0,3,0,0,0,0,0,0,0,1027,0,No
1,1,1,0,0,3,0,0,0,0,0,0,0,998,0,No
0,0,0,0,0,3,0,0,0,0,0,0,0,1027,1,No
0,0,0,0,0,3,0,0,0,0,0,0,0,823,0,No
2,2,8,0,0,3,0,0,0,0,0,0,0,823,2,Yes
0,0,0,0,0,3,0,0,0,0,0,0,0,823,0,No
2,4,11,0,0,3,0,0,0,0,0,0,0,823,3,Yes
0,0,0,0,0,3,0,0,0,0,0,0,0,823,0,No
2,2,5,0,0,3,0,0,0,0,0,0,0,823,2,Yes
1,0,2,0,0,3,0,0,0,0,0,0,0,823,0,No
0,0,0,0,0,3,0,0,0,0,0,0,0,823,0,No
2,3,6,0,0,3,0,0,0,0,0,0,0,823,2,Yes
4,1,7,0,0,3,0,0,0,0,0,0,0,823,0,Yes
0,0,0,0,0,3,0,0,0,0,0,0,0,588,0,No
2,2,7,0,0,3,0,0,0,0,0,0,0,484,1,Yes
0,0,0,0,0,3,0,0,0,0,0,0,0,823,0,No
2,9,21,0,0,4,0,0,0,0,0,0,0,557,3,Yes
0,0,0,0,0,3,0,0,0,0,0,0,0,588,0,No
2,4,10,0,1,3,0,0,0,0,0,0,0,823,2,Yes
0,0,0,0,0,3,0,0,0,0,0,0,0,588,0,No
2,3,6,0,0,3,0,0,0,0,0,0,0,588,2,Yes
0,0,0,0,0,3,0,0,0,0,0,0,0,588,0,No
2,3,8,0,0,6,0,0,0,0,0,0,0,588,2,Yes
0,0,0,0,0,3,0,0,0,0,0,0,0,823,0,No
0,0,0,0,0,3,0,0,0,0,0,0,0,823,0,No
2,4,12,0,0,4,0,0,0,0,0,0,0,536,1,No
2,3,9,0,0,3,0,0,0,0,0,0,0,823,2,Yes
0,0,0,0,0,3,0,0,0,0,0,0,0,588,0,No
2,3,9,0,0,5,0,0,0,0,0,0,0,582,1,Yes
0,0,0,0,0,3,0,0,0,0,0,0,0,823,0,No
4,13,24,0,0,5,0,0,0,0,0,0,0,494,1,Yes
0,0,0,0,0,3,0,0,0,0,0,0,0,823,0,No
2,4,8,0,0,3,0,0,0,0,0,0,0,494,1,Yes
1,9,25,2,2,4,1,1,0,0,1,8,10,487,1,No
0,0,0,0,0,3,0,0,0,0,0,0,0,988,0,No
12,2,58,0,0,3,0,0,0,0,0,0,0,544,0,No
0,0,0,0,0,3,0,0,0,0,0,0,0,988,0,No
0,0,0,0,0,3,0,0,0,0,0,0,0,988,0,No
1,2,1,0,0,3,0,0,0,0,0,0,0,557,1,No
1,7,18,0,0,5,0,0,0,0,0,0,0,557,1,No
10,0,20,39,0,1,0,0,-39,0,1,1,2,35,2,No
19,11,94,68,0,6,36,21,4,15,2,2,3,900,40,No
12,1,32,0,1,4,0,0,0,0,0,0,0,942,0,No
1,0,1,0,0,3,0,0,0,0,0,0,0,1027,0,No
1,1,1,0,0,3,0,0,0,0,0,0,0,379,1,No
19,31,111,85,7,6,60,31,35,27,4,12,18,965,15,No
0,0,0,0,0,4,0,0,0,0,0,0,0,988,1,No
0,0,0,0,0,3,0,0,0,0,0,0,0,988,0,No
5,3,6,0,0,3,0,0,0,0,0,0,0,588,0,Yes
0,0,0,0,0,3,0,0,0,0,0,0,0,588,0,No
2,1,2,0,0,4,0,0,0,0,0,0,0,382,0,No
0,1,0,0,0,3,0,0,0,0,0,0,0,588,0,No
1,1,10,0,0,1,0,0,0,0,0,0,0,357,0,Yes
6,15,44,0,0,4,0,0,0,0,0,0,0,588,5,Yes
4,11,15,0,0,3,0,0,0,0,0,0,0,1027,6,No
2,7,3,0,0,3,0,0,0,0,0,0,0,806,0,No
8,12,15,0,0,5,0,0,0,0,0,0,0,952,2,Yes
11,20,35,0,0,6,0,0,0,0,0,0,0,967,5,No
5,9,9,0,0,4,0,0,0,0,0,0,0,979,0,No
0,0,0,0,0,3,0,0,0,0,0,0,0,988,0,No
10,13,21,0,0,4,0,0,0,0,0,0,0,749,4,Yes
5,8,9,0,0,4,0,0,0,0,0,0,0,484,3,Yes
13,16,22,0,0,4,0,0,0,0,0,0,0,544,4,Yes
13,19,38,0,1,5,0,0,0,0,0,0,0,382,7,Yes
8,21,20,0,0,5,0,0,0,0,0,0,0,965,0,No
8,13,27,0,0,4,0,0,0,0,0,0,0,956,0,No
5,9,9,0,0,4,0,0,0,0,0,0,0,984,0,No
16,27,43,0,0,4,0,0,0,0,0,0,0,861,6,Yes
1,0,1,0,0,3,0,0,0,0,0,0,0,1027,0,No
30,25,62,0,3,5,0,0,0,0,0,0,0,994,8,Yes
8,12,15,0,0,5,0,0,0,0,0,0,0,474,0,No
5,9,9,0,0,5,0,0,0,0,0,0,0,662,0,No
3,7,3,0,1,3,0,0,0,0,0,0,0,477,0,No
14,35,142,0,1,5,0,0,0,0,0,0,0,955,8,No
2,2,2,0,0,3,0,0,0,0,0,0,0,952,0,No
3,9,22,0,0,4,0,0,0,0,0,0,0,967,0,No
4,7,7,0,0,3,0,0,0,0,0,0,0,979,0,No
3,2,3,0,0,4,0,0,0,0,0,0,0,484,0,No
2,11,31,0,0,4,0,0,0,0,0,0,0,543,2,Yes
6,10,21,0,0,3,0,0,0,0,0,0,0,382,1,No
11,16,46,0,0,4,0,0,0,0,0,0,0,965,2,No
3,16,30,0,1,3,0,0,0,0,0,0,0,977,3,No
4,10,9,0,0,3,0,0,0,0,0,0,0,979,0,No
7,24,45,0,1,5,0,0,0,0,0,0,0,865,2,Yes
8,0,10,0,0,3,0,0,0,0,0,0,0,994,0,No
11,30,56,0,1,6,0,0,0,0,0,0,0,977,5,Yes
6,7,10,0,0,4,0,0,0,0,0,0,0,474,0,No
4,4,4,0,0,4,0,0,0,0,0,0,0,662,2,No
4,4,7,0,0,3,0,0,0,0,0,0,0,580,1,No
6,3,6,0,0,4,0,0,0,0,0,0,0,463,3,No
4,10,27,0,2,5,0,0,0,0,0,0,0,477,1,No
2,13,11,0,0,3,0,0,0,0,0,0,0,382,1,No
0,0,0,0,0,3,0,0,0,0,0,0,0,588,1,No
2,2,5,0,0,3,0,0,0,0,0,0,0,588,2,No
3,5,12,0,0,4,0,0,0,0,0,0,0,456,1,No
14,39,117,156,2,5,98,96,40,39,2,10,12,588,9,No
6,3,6,0,0,4,0,0,0,0,0,0,0,463,6,No
13,2,18,0,0,3,0,0,0,0,0,0,0,480,1,No
0,0,0,0,0,3,0,0,0,0,0,0,0,988,0,No
5,0,5,0,0,3,0,0,0,0,0,0,0,963,1,No
8,7,15,5,2,4,2,2,-1,0,1,8,10,803,2,No
3,6,9,0,0,3,0,0,0,0,0,0,0,803,0,No
2,0,2,0,0,3,0,0,0,0,0,0,0,1027,0,No
21,33,75,0,0,3,0,0,0,0,0,0,0,955,17,Yes
3,3,18,0,0,5,0,0,0,0,0,0,0,522,0,No
12,20,82,294,6,4,173,76,52,27,5,14,20,361,5,No
7,1,17,0,1,4,0,0,0,0,0,0,0,726,1,No
8,3,93,0,0,6,0,0,0,0,0,0,0,411,16,Yes
6,7,33,0,0,3,0,0,0,0,0,0,0,685,7,Yes
21,19,76,12,2,3,12,12,12,12,1,4,8,362,5,No
2,0,8,0,0,3,0,0,0,0,0,0,0,390,0,No
4,10,20,0,0,3,0,0,0,0,0,0,0,588,0,No
6,1,16,172,0,1,166,159,160,159,2,6,12,13,1,Yes
4,1,14,95,0,1,84,64,73,64,2,6,12,13,1,Yes
5,0,5,69,0,1,69,69,69,69,1,4,8,13,0,No
14,0,18,0,0,4,0,0,0,0,0,0,0,411,0,No
2,0,6,0,0,4,0,0,0,0,0,0,0,411,1,No
13,7,13,2,2,4,0,0,-2,0,1,8,10,495,0,No
25,12,86,36,4,4,20,19,4,4,5,11,19,501,13,No
15,8,19,4,3,5,2,2,0,0,1,8,10,512,0,No
18,8,18,0,1,4,0,0,0,0,0,0,0,512,1,No
0,0,0,0,0,3,0,0,0,0,0,0,0,588,0,No
9,1,9,2,1,3,0,0,-2,0,1,8,10,477,0,No
2,3,2,0,0,3,0,0,0,0,0,0,0,501,0,No
1,1,1,0,0,4,0,0,0,0,0,0,0,588,0,No
1,3,1,0,0,4,0,0,0,0,0,0,0,501,0,No
1,2,2,1,1,4,0,0,-1,0,2,4,4,501,0,No
1,2,1,0,0,3,0,0,0,0,0,0,0,501,0,No
1,0,1,0,0,3,0,0,0,0,0,0,0,588,1,No
1,0,1,0,0,3,0,0,0,0,0,0,0,588,1,No
1,1,1,0,0,3,0,0,0,0,0,0,0,588,0,No
10,4,14,0,0,4,0,0,0,0,0,0,0,489,1,No
16,2,25,0,0,4,0,0,0,0,0,0,0,489,1,No
1,0,1,0,0,3,0,0,0,0,0,0,0,588,0,No
4,0,4,0,0,3,0,0,0,0,0,0,0,588,0,No
13,4,16,0,0,4,0,0,0,0,0,0,0,489,0,No
20,7,35,0,0,4,0,0,0,0,0,0,0,489,1,No
1,4,1,1,0,4,0,0,-1,0,3,7,15,501,0,No
0,0,0,0,0,3,0,0,0,0,0,0,0,988,0,No
1,0,16,0,0,3,0,0,0,0,0,0,0,406,0,No
2,0,6,0,0,3,0,0,0,0,0,0,0,469,2,No
6,0,18,0,0,3,0,0,0,0,0,0,0,469,1,No
2,0,9,0,0,3,0,0,0,0,0,0,0,469,2,No
5,0,17,0,0,3,0,0,0,0,0,0,0,469,1,No
4,0,5,0,0,1,0,0,0,0,0,0,0,62,1,No
0,1,0,0,0,3,0,0,0,0,0,0,0,615,0,No
0,0,0,0,0,3,0,0,0,0,0,0,0,615,0,No
3,0,3,0,0,3,0,0,0,0,0,0,0,1054,0,No
0,0,0,0,0,4,0,0,0,0,0,0,0,615,1,No
1,0,2,0,0,4,0,0,0,0,0,0,0,1054,0,No
2,0,2,0,0,4,0,0,0,0,0,0,0,430,0,No
35,1,42,0,0,4,0,0,0,0,0,0,0,970,0,No
11,1,12,0,0,3,0,0,0,0,0,0,0,970,0,No
11,0,12,0,0,4,0,0,0,0,0,0,0,1054,2,No
2,1,2,0,0,3,0,0,0,0,0,0,0,1054,2,No
19,0,28,0,1,3,0,0,0,0,0,0,0,990,0,No
13,0,17,0,0,4,0,0,0,0,0,0,0,970,0,No
2,1,2,0,0,3,0,0,0,0,0,0,0,615,0,No
1,0,1,0,0,3,0,0,0,0,0,0,0,409,0,No
12,1,14,0,0,1,0,0,0,0,0,0,0,384,0,No
10,3,10,0,0,3,0,0,0,0,0,0,0,409,0,No
7,1,11,0,0,3,0,0,0,0,0,0,0,901,0,No
5,1,6,0,0,3,0,0,0,0,0,0,0,1054,1,No
25,1,52,0,0,3,0,0,0,0,0,0,0,901,1,No
3,1,3,0,0,3,0,0,0,0,0,0,0,1054,0,No
0,0,0,0,0,3,0,0,0,0,0,0,0,1015,1,No
16,0,20,0,0,4,0,0,0,0,0,0,0,1021,0,No
10,1,14,0,0,3,0,0,0,0,0,0,0,892,0,No
2,2,2,0,0,3,0,0,0,0,0,0,0,1054,0,No
8,1,13,0,0,4,0,0,0,0,0,0,0,1054,2,No
4,1,4,0,0,3,0,0,0,0,0,0,0,1054,0,No
12,2,12,0,0,3,0,0,0,0,0,0,0,992,0,No
19,3,25,0,0,4,0,0,0,0,0,0,0,994,0,No
5,1,7,0,0,4,0,0,0,0,0,0,0,430,0,No
4,1,4,0,0,3,0,0,0,0,0,0,0,1011,0,No
4,2,4,0,0,3,0,0,0,0,0,0,0,1054,0,No
8,0,8,0,0,4,0,0,0,0,0,0,0,1054,1,No
24,4,27,0,0,4,0,0,0,0,0,0,0,511,0,No
16,1,17,0,1,3,0,0,0,0,0,0,0,504,0,No
2,2,2,0,0,3,0,0,0,0,0,0,0,1054,0,No
5,2,5,0,0,3,0,0,0,0,0,0,0,1054,0,No
8,2,8,0,0,4,0,0,0,0,0,0,0,406,0,No
14,2,14,0,0,3,0,0,0,0,0,0,0,892,0,No
3,1,3,0,0,3,0,0,0,0,0,0,0,615,0,No
24,2,32,0,0,3,0,0,0,0,0,0,0,409,0,No
36,4,36,0,0,3,0,0,0,0,0,0,0,990,0,No
25,0,31,0,0,3,0,0,0,0,0,0,0,983,0,No
8,0,12,0,0,3,0,0,0,0,0,0,0,1054,0,No
14,2,14,0,0,3,0,0,0,0,0,0,0,999,0,No
20,2,21,0,0,4,0,0,0,0,0,0,0,1054,0,No
2,2,2,0,0,3,0,0,0,0,0,0,0,1054,0,No
16,0,16,0,0,3,0,0,0,0,0,0,0,615,0,No
2,0,2,0,0,3,0,0,0,0,0,0,0,892,0,No
12,1,16,0,0,3,0,0,0,0,0,0,0,892,0,No
10,3,13,0,0,3,0,0,0,0,0,0,0,501,0,No
29,0,39,0,0,4,0,0,0,0,0,0,0,1021,1,No
2,1,2,0,0,3,0,0,0,0,0,0,0,1054,0,No
4,1,4,0,0,3,0,0,0,0,0,0,0,615,0,No
20,2,21,0,0,3,0,0,0,0,0,0,0,517,0,No
20,1,26,0,0,4,0,0,0,0,0,0,0,517,1,No
10,11,52,0,2,5,0,0,0,0,0,0,0,497,0,No
2,0,4,0,0,3,0,0,0,0,0,0,0,486,3,No
7,1,13,0,0,3,0,0,0,0,0,0,0,999,0,No
1,1,10,0,0,3,0,0,0,0,0,0,0,999,2,No
8,1,8,0,0,3,0,0,0,0,0,0,0,999,0,No
0,1,0,0,0,3,0,0,0,0,0,0,0,1015,2,No
20,1,24,0,0,3,0,0,0,0,0,0,0,1015,0,No
0,0,0,0,0,3,0,0,0,0,0,0,0,1015,0,No
2,0,2,0,0,3,0,0,0,0,0,0,0,1054,2,No
5,3,9,0,0,1,0,0,0,0,0,0,0,368,0,No
1,0,1,0,0,3,0,0,0,0,0,0,0,1015,1,No
0,0,0,0,0,3,0,0,0,0,0,0,0,1015,0,No
15,1,17,0,0,4,0,0,0,0,0,0,0,1054,1,No
7,1,8,0,0,3,0,0,0,0,0,0,0,1054,1,No
1,0,1,0,0,3,0,0,0,0,0,0,0,1015,0,No
0,0,0,0,0,3,0,0,0,0,0,0,0,1015,0,No
2,0,3,0,0,1,0,0,0,0,0,0,0,341,1,No
4,0,16,0,0,6,0,0,0,0,0,0,0,1015,4,No
48,1,52,0,0,4,0,0,0,0,0,0,0,584,0,No
1,0,1,0,0,3,0,0,0,0,0,0,0,1015,0,No
0,0,0,0,0,3,0,0,0,0,0,0,0,1015,0,No
0,0,0,0,0,3,0,0,0,0,0,0,0,1015,0,No
1,0,2,0,0,3,0,0,0,0,0,0,0,1015,0,No
0,0,0,0,0,3,0,0,0,0,0,0,0,1015,0,No
0,0,0,0,0,3,0,0,0,0,0,0,0,1015,0,No
2,0,4,0,0,3,0,0,0,0,0,0,0,1054,3,No
4,1,6,0,0,4,0,0,0,0,0,0,0,1015,0,No
3,0,6,0,0,3,0,0,0,0,0,0,0,999,1,No
2,0,9,0,0,3,0,0,0,0,0,0,0,417,0,No
1,0,1,0,0,3,0,0,0,0,0,0,0,1015,0,No
0,0,0,0,0,3,0,0,0,0,0,0,0,1015,0,No
0,0,0,0,0,3,0,0,0,0,0,0,0,615,0,No
0,0,0,0,0,3,0,0,0,0,0,0,0,615,0,No
0,0,0,0,0,3,0,0,0,0,0,0,0,1015,0,No
6,12,16,0,0,4,0,0,0,0,0,0,0,1015,0,No
1,1,8,0,0,3,0,0,0,0,0,0,0,878,1,No
11,0,12,25,0,5,10,10,-5,0,1,3,3,1015,0,No
0,0,0,13,0,3,3,3,-7,0,1,3,3,1015,0,No
3,1,4,0,0,3,0,0,0,0,0,0,0,615,2,No
7,2,16,0,0,2,0,0,0,0,0,0,0,396,0,No
2,0,2,0,0,3,0,0,0,0,0,0,0,615,0,No
10,0,21,0,0,4,0,0,0,0,0,0,0,769,3,No
6,2,11,0,0,3,0,0,0,0,0,0,0,774,1,No
1,7,3,0,0,3,0,0,0,0,0,0,0,684,1,No
13,2,13,0,0,3,0,0,0,0,0,0,0,906,2,No
2,0,3,0,0,3,0,0,0,0,0,0,0,1054,0,No
7,0,12,0,0,3,0,0,0,0,0,0,0,614,1,No
2,0,7,12,1,3,6,6,0,0,1,3,5,734,0,No
2,3,12,81,2,4,62,62,43,43,1,3,5,732,2,No
6,0,6,0,0,3,0,0,0,0,0,0,0,1054,2,No
6,8,35,0,0,2,0,0,0,0,0,0,0,397,2,No
4,3,8,7,1,3,3,3,-1,0,1,3,5,507,0,No
2,0,8,0,0,4,0,0,0,0,0,0,0,843,0,No
8,2,28,0,0,1,0,0,0,0,0,0,0,396,1,No
2,7,7,0,0,4,0,0,0,0,0,0,0,614,1,No
2,3,2,0,0,3,0,0,0,0,0,0,0,684,1,No
8,11,27,0,0,3,0,0,0,0,0,0,0,514,2,No
1,1,1,0,0,3,0,0,0,0,0,0,0,1015,0,No
11,7,17,0,0,4,0,0,0,0,0,0,0,1015,2,No
36,19,54,0,0,5,0,0,0,0,0,0,0,1015,16,No
2,5,5,0,0,4,0,0,0,0,0,0,0,909,3,No
15,14,43,0,1,5,0,0,0,0,0,0,0,990,5,No
3,6,11,0,0,4,0,0,0,0,0,0,0,990,1,No
10,3,15,130,2,3,51,47,-28,0,2,6,8,963,1,No
2,7,4,0,1,3,0,0,0,0,0,0,0,409,0,No
0,0,0,0,0,3,0,0,0,0,0,0,0,1015,0,No
0,0,0,0,0,3,0,0,0,0,0,0,0,615,0,No
0,0,0,0,0,3,0,0,0,0,0,0,0,1015,0,No
11,5,15,9,0,5,3,3,-3,0,1,3,3,1014,10,No
0,2,0,0,0,4,0,0,0,0,0,0,0,1013,1,No
2,5,2,0,0,4,0,0,0,0,0,0,0,963,1,No
6,13,16,0,1,5,0,0,0,0,0,0,0,504,3,Yes
0,3,0,0,0,4,0,0,0,0,0,0,0,504,0,No
5,14,25,0,0,5,0,0,0,0,0,0,0,514,5,No
0,2,0,0,0,3,0,0,0,0,0,0,0,684,0,No
3,2,3,0,0,1,0,0,0,0,0,0,0,396,0,No
35,17,64,0,0,4,0,0,0,0,0,0,0,396,5,No
10,17,69,0,0,2,0,0,0,0,0,0,0,384,4,No
24,15,36,0,0,4,0,0,0,0,0,0,0,1015,5,Yes
3,8,9,0,4,5,0,0,0,0,0,0,0,984,2,No
28,11,34,0,0,5,0,0,0,0,0,0,0,1015,13,Yes
2,6,5,69,1,5,35,35,1,1,1,5,6,963,1,No
4,2,6,68,0,5,48,45,28,28,2,9,10,1015,3,No
1,2,1,0,0,4,0,0,0,0,0,0,0,614,0,No
23,15,39,0,0,4,0,0,0,0,0,0,0,1008,40,No
9,9,37,0,0,6,0,0,0,0,0,0,0,990,6,No
4,5,7,0,0,4,0,0,0,0,0,0,0,423,2,No
2,6,3,0,0,3,0,0,0,0,0,0,0,614,0,No
9,13,11,0,0,4,0,0,0,0,0,0,0,879,2,No
11,9,16,0,0,5,0,0,0,0,0,0,0,1015,0,Yes
24,14,37,0,0,3,0,0,0,0,0,0,0,514,8,No
8,8,16,6,1,5,3,3,0,0,1,1,1,963,3,No
2,6,11,0,1,3,0,0,0,0,0,0,0,409,3,No
2,3,2,0,0,3,0,0,0,0,0,0,0,684,0,No
7,7,11,0,1,5,0,0,0,0,0,0,0,1015,3,No
2,1,2,0,0,3,0,0,0,0,0,0,0,684,0,No
3,6,11,0,0,3,0,0,0,0,0,0,0,684,1,No
0,2,0,0,0,4,0,0,0,0,0,0,0,1015,2,No
0,3,0,0,0,3,0,0,0,0,0,0,0,409,0,No
8,17,38,0,0,5,0,0,0,0,0,0,0,599,3,No
8,7,12,0,0,4,0,0,0,0,0,0,0,682,0,No
1,0,1,0,0,3,0,0,0,0,0,0,0,1015,0,No
8,12,14,0,0,5,0,0,0,0,0,0,0,1015,6,No
15,16,23,0,0,5,0,0,0,0,0,0,0,565,4,No
10,13,22,0,1,5,0,0,0,0,0,0,0,571,1,No
8,14,14,0,0,5,0,0,0,0,0,0,0,1015,7,No
6,13,27,0,1,5,0,0,0,0,0,0,0,409,2,No
7,10,11,0,0,4,0,0,0,0,0,0,0,409,1,No
15,14,59,11,3,6,3,3,-5,0,1,2,2,409,0,No
5,5,15,0,0,4,0,0,0,0,0,0,0,523,1,No
1,4,2,8,0,5,4,4,0,0,1,5,6,599,2,No
25,21,47,35,3,5,30,30,25,25,1,3,3,507,4,No
1,5,1,17,0,5,7,6,-3,0,2,8,15,500,1,No
6,6,11,0,0,4,0,0,0,0,0,0,0,523,1,No
2,4,5,39,0,4,6,3,-27,0,2,9,10,500,5,No
1,5,1,0,0,4,0,0,0,0,0,0,0,500,0,No
9,8,13,0,0,3,0,0,0,0,0,0,0,599,2,No
10,14,17,0,0,5,0,0,0,0,0,0,0,1015,6,No
2,5,7,0,0,3,0,0,0,0,0,0,0,409,3,No
12,15,19,0,0,5,0,0,0,0,0,0,0,1015,6,No
1,5,2,0,0,3,0,0,0,0,0,0,0,511,0,No
9,7,29,0,0,2,0,0,0,0,0,0,0,397,3,No
26,16,67,0,0,4,0,0,0,0,0,0,0,1015,5,Yes
9,9,15,0,0,3,0,0,0,0,0,0,0,682,0,No
0,0,0,0,0,4,0,0,0,0,0,0,0,1054,1,No
3,3,3,0,1,4,0,0,0,0,0,0,0,514,0,No
5,2,5,0,0,5,0,0,0,0,0,0,0,963,0,No
11,6,21,0,1,5,0,0,0,0,0,0,0,990,1,No
1,2,2,0,0,4,0,0,0,0,0,0,0,811,0,No
3,1,3,0,0,3,0,0,0,0,0,0,0,1015,2,No
0,0,0,0,0,3,0,0,0,0,0,0,0,1015,1,No
7,6,9,0,0,5,0,0,0,0,0,0,0,963,0,No
7,3,7,0,0,4,0,0,0,0,0,0,0,504,0,No
5,6,33,0,0,5,0,0,0,0,0,0,0,571,0,Yes
10,4,11,0,0,3,0,0,0,0,0,0,0,396,0,Yes
5,3,7,0,0,5,0,0,0,0,0,0,0,984,0,No
5,4,7,0,0,5,0,0,0,0,0,0,0,984,0,Yes
18,6,30,2,1,5,0,0,-2,0,1,3,3,1054,0,No
16,8,23,0,0,5,0,0,0,0,0,0,0,879,0,Yes
5,4,5,0,0,5,0,0,0,0,0,0,0,497,0,No
15,7,24,0,2,5,0,0,0,0,0,0,0,1005,0,Yes
2,3,2,0,0,4,0,0,0,0,0,0,0,811,0,No
4,0,4,0,0,1,0,0,0,0,0,0,0,396,0,No
2,1,3,0,0,1,0,0,0,0,0,0,0,38,0,No
2,1,3,0,0,3,0,0,0,0,0,0,0,734,0,No
2,0,2,0,0,3,0,0,0,0,0,0,0,734,0,No
1,1,2,0,0,3,0,0,0,0,0,0,0,504,0,No
1,1,2,0,0,3,0,0,0,0,0,0,0,504,0,No
1,1,10,9,1,3,5,5,1,1,1,3,5,501,1,No
1,0,1,0,0,3,0,0,0,0,0,0,0,1015,0,No
1,0,1,0,0,3,0,0,0,0,0,0,0,1054,1,No
14,3,33,0,0,3,0,0,0,0,0,0,0,423,0,No
5,0,16,0,0,4,0,0,0,0,0,0,0,963,1,No
3,0,3,0,0,3,0,0,0,0,0,0,0,773,0,No
5,0,5,11,1,5,6,6,1,1,1,1,2,963,1,No
1,0,1,0,0,3,0,0,0,0,0,0,0,963,0,No
2,1,2,5,1,4,5,5,5,5,1,5,6,571,0,No
2,0,3,0,0,3,0,0,0,0,0,0,0,963,0,No
5,0,9,21,2,5,18,10,15,8,2,3,4,963,2,No
1,0,1,0,0,3,0,0,0,0,0,0,0,1015,0,No
6,1,32,0,0,5,0,0,0,0,0,0,0,571,1,No
4,0,5,0,0,5,0,0,0,0,0,0,0,571,3,No
10,1,24,0,0,5,0,0,0,0,0,0,0,571,6,No
19,0,35,0,0,3,0,0,0,0,0,0,0,571,1,No
0,0,0,0,0,3,0,0,0,0,0,0,0,1015,0,No
8,0,14,0,0,4,0,0,0,0,0,0,0,571,0,No
1,0,1,92,2,1,2,2,-88,0,3,3,4,45,0,No
9,0,30,0,0,1,0,0,0,0,0,0,0,384,1,No
26,0,36,11,2,1,5,5,-1,0,2,2,3,384,0,No
5,8,6,0,0,3,0,0,0,0,0,0,0,963,7,No
4,5,5,20,0,4,12,9,4,4,2,9,10,500,1,No
2,3,7,0,0,1,0,0,0,0,0,0,0,376,2,No
12,0,20,0,0,1,0,0,0,0,0,0,0,376,0,No
2,0,14,0,0,3,0,0,0,0,0,0,0,921,8,No
1,1,4,0,1,4,0,0,0,0,0,0,0,528,1,No
8,8,12,0,0,4,0,0,0,0,0,0,0,930,3,No
1,2,21,0,1,6,0,0,0,0,0,0,0,1011,7,No
2,6,19,0,0,1,0,0,0,0,0,0,0,362,3,No
14,13,34,0,4,4,0,0,0,0,0,0,0,607,6,No
1,4,9,0,0,4,0,0,0,0,0,0,0,417,0,Yes
5,2,9,0,1,3,0,0,0,0,0,0,0,670,2,No
1,0,1,0,1,3,0,0,0,0,0,0,0,1015,0,No
7,21,26,0,1,4,0,0,0,0,0,0,0,504,1,Yes
13,3,18,0,1,5,0,0,0,0,0,0,0,1008,0,No
2,0,2,0,0,3,0,0,0,0,0,0,0,1015,0,No
17,4,48,0,2,4,0,0,0,0,0,0,0,1043,7,No
25,0,42,0,2,4,0,0,0,0,0,0,0,1008,0,No
9,1,18,0,1,4,0,0,0,0,0,0,0,1054,1,No
6,3,12,0,0,4,0,0,0,0,0,0,0,1028,0,No
9,1,9,0,0,3,0,0,0,0,0,0,0,1011,1,No
8,0,13,0,1,4,0,0,0,0,0,0,0,409,0,No
22,4,33,0,0,4,0,0,0,0,0,0,0,1041,3,No
8,0,10,0,0,4,0,0,0,0,0,0,0,689,0,No
7,1,7,0,0,3,0,0,0,0,0,0,0,1011,1,No
0,1,0,0,0,4,0,0,0,0,0,0,0,1008,0,No
19,3,25,0,0,3,0,0,0,0,0,0,0,1019,1,No
4,1,4,0,0,3,0,0,0,0,0,0,0,1043,0,No
39,6,49,0,0,5,0,0,0,0,0,0,0,999,1,No
23,5,31,0,0,4,0,0,0,0,0,0,0,511,0,No
16,1,17,0,0,4,0,0,0,0,0,0,0,504,0,No
0,1,0,0,0,3,0,0,0,0,0,0,0,1008,0,No
6,4,6,0,0,3,0,0,0,0,0,0,0,584,0,No
14,5,14,0,0,4,0,0,0,0,0,0,0,892,0,No
13,2,27,0,0,3,0,0,0,0,0,0,0,409,1,No
6,1,8,0,0,3,0,0,0,0,0,0,0,409,0,No
5,2,7,0,0,3,0,0,0,0,0,0,0,409,0,No
4,1,4,0,0,3,0,0,0,0,0,0,0,615,0,No
15,2,15,0,0,3,0,0,0,0,0,0,0,999,0,No
0,1,0,0,0,3,0,0,0,0,0,0,0,1008,0,No
17,4,18,0,0,4,0,0,0,0,0,0,0,615,1,No
4,0,4,0,0,3,0,0,0,0,0,0,0,1054,0,No
6,2,6,0,0,3,0,0,0,0,0,0,0,1043,0,No
5,0,10,0,0,3,0,0,0,0,0,0,0,892,0,No
4,0,4,0,0,3,0,0,0,0,0,0,0,892,0,No
8,4,11,0,0,3,0,0,0,0,0,0,0,501,0,No
11,4,19,0,0,4,0,0,0,0,0,0,0,1008,0,No
5,3,7,0,0,4,0,0,0,0,0,0,0,850,0,No
3,2,4,0,0,4,0,0,0,0,0,0,0,1054,0,No
4,3,6,0,0,4,0,0,0,0,0,0,0,1008,0,No
0,1,0,0,0,3,0,0,0,0,0,0,0,1008,0,No
0,1,0,0,0,3,0,0,0,0,0,0,0,1008,0,No
5,3,7,0,0,5,0,0,0,0,0,0,0,1008,0,No
0,1,0,0,0,3,0,0,0,0,0,0,0,1008,0,No
24,7,30,0,0,5,0,0,0,0,0,0,0,978,1,No
0,0,0,0,0,3,0,0,0,0,0,0,0,1015,0,No
11,4,19,0,0,4,0,0,0,0,0,0,0,1008,0,No
5,3,7,0,0,4,0,0,0,0,0,0,0,850,0,No
3,2,4,0,0,4,0,0,0,0,0,0,0,1054,0,No
4,3,6,0,0,4,0,0,0,0,0,0,0,1008,0,No
0,1,0,0,0,3,0,0,0,0,0,0,0,1008,0,No
0,1,0,0,0,3,0,0,0,0,0,0,0,1008,0,No
5,3,7,0,0,5,0,0,0,0,0,0,0,1008,0,No
0,1,0,0,0,3,0,0,0,0,0,0,0,1008,0,No
39,11,72,0,0,4,0,0,0,0,0,0,0,1008,0,No
53,9,98,0,4,5,0,0,0,0,0,0,0,1008,2,No
11,4,19,0,1,4,0,0,0,0,0,0,0,1008,0,No
5,3,7,0,0,4,0,0,0,0,0,0,0,850,0,No
3,2,4,0,0,4,0,0,0,0,0,0,0,1054,0,No
4,3,6,0,0,4,0,0,0,0,0,0,0,1008,0,No
0,2,0,0,0,3,0,0,0,0,0,0,0,1008,0,No
0,2,0,0,0,3,0,0,0,0,0,0,0,1008,0,No
5,3,8,0,0,5,0,0,0,0,0,0,0,1008,0,No
0,2,0,0,0,3,0,0,0,0,0,0,0,1008,0,No
5,2,5,0,0,3,0,0,0,0,0,0,0,1054,0,No
5,2,5,0,0,3,0,0,0,0,0,0,0,1054,0,No
5,2,5,0,0,3,0,0,0,0,0,0,0,1054,0,No
4,2,4,0,0,3,0,0,0,0,0,0,0,1054,0,No
4,1,4,0,0,3,0,0,0,0,0,0,0,1015,0,No
5,2,5,0,0,3,0,0,0,0,0,0,0,1054,0,No
5,4,5,0,0,3,0,0,0,0,0,0,0,1054,0,No
6,3,6,0,0,3,0,0,0,0,0,0,0,1054,0,No
5,3,5,0,0,3,0,0,0,0,0,0,0,1054,0,No
5,4,5,0,0,3,0,0,0,0,0,0,0,1054,0,No
1,0,1,0,0,3,0,0,0,0,0,0,0,1015,0,No
4,2,4,0,0,3,0,0,0,0,0,0,0,615,0,No
8,5,8,0,0,3,0,0,0,0,0,0,0,1015,0,No
7,2,7,0,0,3,0,0,0,0,0,0,0,1054,0,Yes
7,3,7,0,0,3,0,0,0,0,0,0,0,1054,0,No
8,4,8,0,0,3,0,0,0,0,0,0,0,1054,0,No
12,5,12,0,0,3,0,0,0,0,0,0,0,1054,1,Yes
5,4,5,0,0,3,0,0,0,0,0,0,0,1054,0,No
12,5,12,0,0,3,0,0,0,0,0,0,0,1054,0,Yes
8,3,8,0,0,3,0,0,0,0,0,0,0,1054,0,No
13,5,13,0,0,3,0,0,0,0,0,0,0,1054,0,Yes
4,2,4,0,0,3,0,0,0,0,0,0,0,615,0,No
4,2,4,0,0,5,0,0,0,0,0,0,0,1054,0,No
5,2,5,0,0,3,0,0,0,0,0,0,0,1054,0,No
5,4,5,0,0,3,0,0,0,0,0,0,0,1054,0,No
8,2,12,0,0,3,0,0,0,0,0,0,0,1054,0,Yes
5,2,7,0,0,3,0,0,0,0,0,0,0,1043,0,No
5,2,7,0,0,3,0,0,0,0,0,0,0,1043,0,No
5,3,9,0,0,3,0,0,0,0,0,0,0,1043,1,No
4,5,9,0,0,3,0,0,0,0,0,0,0,1043,0,No
5,2,7,0,0,3,0,0,0,0,0,0,0,1043,0,No
5,6,8,0,0,3,0,0,0,0,0,0,0,1043,0,No
6,5,9,0,0,3,0,0,0,0,0,0,0,1043,0,No
5,4,8,0,0,3,0,0,0,0,0,0,0,417,0,No
5,6,8,0,0,3,0,0,0,0,0,0,0,978,0,No
4,3,4,0,0,3,0,0,0,0,0,0,0,511,0,No
8,6,14,0,0,3,0,0,0,0,0,0,0,584,0,No
7,3,10,0,0,3,0,0,0,0,0,0,0,409,0,Yes
8,4,12,0,0,3,0,0,0,0,0,0,0,409,0,No
8,12,19,0,0,3,0,0,0,0,0,0,0,999,1,No
14,8,26,0,0,3,0,0,0,0,0,0,0,1043,1,Yes
5,6,8,0,0,3,0,0,0,0,0,0,0,1043,0,No
13,8,23,0,0,4,0,0,0,0,0,0,0,1043,0,Yes
9,7,14,0,0,3,0,0,0,0,0,0,0,1043,0,No
17,16,80,0,0,6,0,0,0,0,0,0,0,798,4,Yes
4,3,4,0,0,3,0,0,0,0,0,0,0,511,0,No
15,13,87,0,0,6,0,0,0,0,0,0,0,1054,11,No
5,2,7,0,0,3,0,0,0,0,0,0,0,1043,0,No
5,6,8,0,0,3,0,0,0,0,0,0,0,1043,0,No
2,0,67,0,0,1,0,0,0,0,0,0,0,255,7,No
2,2,2,0,1,3,0,0,0,0,0,0,0,1025,0,No
1,2,2,0,0,3,0,0,0,0,0,0,0,1054,0,No
1,3,6,0,0,4,0,0,0,0,0,0,0,1054,0,No
1,2,2,0,0,3,0,0,0,0,0,0,0,1025,0,No
0,1,0,0,0,3,0,0,0,0,0,0,0,1054,0,No
0,0,0,0,0,3,0,0,0,0,0,0,0,1054,0,No
1,1,1,0,0,3,0,0,0,0,0,0,0,1025,0,No
0,0,0,0,0,3,0,0,0,0,0,0,0,1054,1,No
0,0,0,0,0,3,0,0,0,0,0,0,0,850,0,No
2,2,8,0,0,3,0,0,0,0,0,0,0,850,2,No
0,0,0,0,0,3,0,0,0,0,0,0,0,850,0,No
2,4,11,0,0,3,0,0,0,0,0,0,0,850,3,No
0,0,0,0,0,3,0,0,0,0,0,0,0,850,0,No
2,2,5,0,0,3,0,0,0,0,0,0,0,850,2,No
1,0,2,0,0,3,0,0,0,0,0,0,0,850,0,No
0,0,0,0,0,3,0,0,0,0,0,0,0,850,0,No
2,3,6,0,0,3,0,0,0,0,0,0,0,850,2,No
4,1,7,0,0,3,0,0,0,0,0,0,0,850,0,No
0,0,0,0,0,3,0,0,0,0,0,0,0,615,0,No
2,2,7,0,0,3,0,0,0,0,0,0,0,511,1,No
0,0,0,0,0,3,0,0,0,0,0,0,0,850,0,No
2,9,21,0,0,4,0,0,0,0,0,0,0,584,3,No
0,0,0,0,0,3,0,0,0,0,0,0,0,615,0,No
2,4,10,0,1,3,0,0,0,0,0,0,0,850,2,No
0,0,0,0,0,3,0,0,0,0,0,0,0,615,0,No
2,3,6,0,0,3,0,0,0,0,0,0,0,615,2,No
0,0,0,0,0,3,0,0,0,0,0,0,0,615,0,No
2,3,8,0,0,6,0,0,0,0,0,0,0,615,2,No
0,0,0,0,0,3,0,0,0,0,0,0,0,850,0,No
0,0,0,0,0,3,0,0,0,0,0,0,0,850,0,No
2,4,12,0,0,4,0,0,0,0,0,0,0,563,1,No
2,3,9,0,0,3,0,0,0,0,0,0,0,850,2,No
0,0,0,0,0,3,0,0,0,0,0,0,0,615,0,No
2,3,9,0,0,5,0,0,0,0,0,0,0,609,1,No
0,0,0,0,0,3,0,0,0,0,0,0,0,850,0,No
4,13,24,0,0,5,0,0,0,0,0,0,0,521,1,No
0,0,0,0,0,3,0,0,0,0,0,0,0,850,0,No
2,4,8,0,0,3,0,0,0,0,0,0,0,521,1,No
1,9,25,0,2,4,0,0,0,0,0,0,0,514,1,No
0,0,0,0,0,3,0,0,0,0,0,0,0,1015,0,No
12,2,58,0,0,3,0,0,0,0,0,0,0,571,0,No
0,0,0,0,0,3,0,0,0,0,0,0,0,1015,0,No
0,0,0,0,0,3,0,0,0,0,0,0,0,1015,0,No
1,2,1,0,0,3,0,0,0,0,0,0,0,584,1,No
1,7,18,0,0,5,0,0,0,0,0,0,0,584,1,No
10,0,20,0,0,1,0,0,0,0,0,0,0,62,2,No
19,11,94,0,0,6,0,0,0,0,0,0,0,927,40,No
12,1,32,0,1,4,0,0,0,0,0,0,0,969,0,No
1,0,1,0,0,3,0,0,0,0,0,0,0,1054,0,No
1,1,1,0,0,3,0,0,0,0,0,0,0,406,1,No
19,31,111,0,7,6,0,0,0,0,0,0,0,992,15,No
0,0,0,0,0,4,0,0,0,0,0,0,0,1015,1,No
0,0,0,0,0,3,0,0,0,0,0,0,0,1015,0,No
5,3,6,0,0,3,0,0,0,0,0,0,0,615,0,No
0,0,0,0,0,3,0,0,0,0,0,0,0,615,0,No
2,1,2,0,0,4,0,0,0,0,0,0,0,409,0,No
0,1,0,0,0,3,0,0,0,0,0,0,0,615,0,No
1,1,10,0,0,1,0,0,0,0,0,0,0,384,0,No
6,15,44,0,0,4,0,0,0,0,0,0,0,615,5,Yes
4,11,15,0,0,3,0,0,0,0,0,0,0,1054,6,No
2,7,3,0,0,3,0,0,0,0,0,0,0,833,0,No
8,12,15,0,0,5,0,0,0,0,0,0,0,979,2,No
11,20,35,0,0,6,0,0,0,0,0,0,0,994,5,No
5,9,9,0,0,4,0,0,0,0,0,0,0,1006,0,No
0,0,0,0,0,3,0,0,0,0,0,0,0,1015,0,No
10,13,21,0,0,4,0,0,0,0,0,0,0,776,4,No
5,8,9,0,0,4,0,0,0,0,0,0,0,511,3,No
13,16,22,0,0,4,0,0,0,0,0,0,0,571,4,Yes
13,19,38,0,1,5,0,0,0,0,0,0,0,409,7,Yes
8,21,20,0,0,5,0,0,0,0,0,0,0,992,0,No
8,13,27,0,0,4,0,0,0,0,0,0,0,983,0,Yes
5,9,9,0,0,4,0,0,0,0,0,0,0,1011,0,No
16,27,43,0,0,4,0,0,0,0,0,0,0,888,6,Yes
1,0,1,0,0,3,0,0,0,0,0,0,0,1054,0,No
30,25,62,0,3,5,0,0,0,0,0,0,0,1021,8,Yes
8,12,15,0,0,5,0,0,0,0,0,0,0,501,0,No
5,9,9,0,0,5,0,0,0,0,0,0,0,689,0,No
3,7,3,0,1,3,0,0,0,0,0,0,0,504,0,No
14,35,142,0,1,5,0,0,0,0,0,0,0,982,8,No
2,2,2,0,0,3,0,0,0,0,0,0,0,979,0,No
3,9,22,0,0,4,0,0,0,0,0,0,0,994,0,No
4,7,7,0,0,3,0,0,0,0,0,0,0,1006,0,No
3,2,3,0,0,4,0,0,0,0,0,0,0,511,0,No
2,11,31,0,0,4,0,0,0,0,0,0,0,570,2,Yes
6,10,21,0,0,3,0,0,0,0,0,0,0,409,1,No
11,16,46,0,0,4,0,0,0,0,0,0,0,992,2,No
3,16,30,0,1,3,0,0,0,0,0,0,0,1004,3,No
4,10,9,0,0,3,0,0,0,0,0,0,0,1006,0,No
7,24,45,0,1,5,0,0,0,0,0,0,0,892,2,Yes
8,0,10,0,0,3,0,0,0,0,0,0,0,1021,0,No
11,30,56,0,1,6,0,0,0,0,0,0,0,1004,5,No
6,7,10,0,0,4,0,0,0,0,0,0,0,501,0,No
4,4,4,0,0,4,0,0,0,0,0,0,0,689,2,No
4,4,7,0,0,3,0,0,0,0,0,0,0,607,1,No
6,3,6,0,0,4,0,0,0,0,0,0,0,490,3,No
4,10,27,0,2,5,0,0,0,0,0,0,0,504,1,No
2,13,11,0,0,3,0,0,0,0,0,0,0,409,1,No
0,0,0,0,0,3,0,0,0,0,0,0,0,615,1,No
2,2,5,0,0,3,0,0,0,0,0,0,0,615,2,No
3,5,12,0,0,4,0,0,0,0,0,0,0,483,1,No
14,39,117,0,2,5,0,0,0,0,0,0,0,615,9,No
6,3,6,0,0,4,0,0,0,0,0,0,0,490,6,No
13,2,18,0,0,3,0,0,0,0,0,0,0,507,1,No
0,0,0,0,0,3,0,0,0,0,0,0,0,1015,0,No
5,0,5,0,0,3,0,0,0,0,0,0,0,990,1,No
8,7,15,0,2,4,0,0,0,0,0,0,0,830,2,No
3,6,9,0,0,3,0,0,0,0,0,0,0,830,0,No
2,0,2,0,0,3,0,0,0,0,0,0,0,1054,0,No
21,33,75,0,0,3,0,0,0,0,0,0,0,982,17,Yes
3,3,18,0,0,5,0,0,0,0,0,0,0,549,0,No
12,20,82,0,6,4,0,0,0,0,0,0,0,388,5,No
7,1,17,0,1,4,0,0,0,0,0,0,0,753,1,No
8,3,93,0,0,6,0,0,0,0,0,0,0,438,16,No
6,7,33,0,0,3,0,0,0,0,0,0,0,712,7,No
21,19,76,0,2,3,0,0,0,0,0,0,0,389,5,No
2,0,8,0,0,3,0,0,0,0,0,0,0,417,0,No
4,10,20,0,0,3,0,0,0,0,0,0,0,615,0,No
6,1,16,0,0,1,0,0,0,0,0,0,0,40,1,No
4,1,14,0,0,1,0,0,0,0,0,0,0,40,1,No
5,0,5,0,0,1,0,0,0,0,0,0,0,40,0,No
14,0,18,0,0,4,0,0,0,0,0,0,0,438,0,No
2,0,6,0,0,4,0,0,0,0,0,0,0,438,1,No
13,7,13,0,2,4,0,0,0,0,0,0,0,522,0,No
25,12,86,0,4,4,0,0,0,0,0,0,0,528,13,No
15,8,19,0,3,5,0,0,0,0,0,0,0,539,0,No
18,8,18,0,1,4,0,0,0,0,0,0,0,539,1,No
0,0,0,0,0,3,0,0,0,0,0,0,0,615,0,No
9,1,9,0,1,3,0,0,0,0,0,0,0,504,0,No
2,3,2,0,0,3,0,0,0,0,0,0,0,528,0,No
1,1,1,0,0,4,0,0,0,0,0,0,0,615,0,No
1,3,1,0,0,4,0,0,0,0,0,0,0,528,0,No
1,2,2,0,1,4,0,0,0,0,0,0,0,528,0,No
1,2,1,0,0,3,0,0,0,0,0,0,0,528,0,No
1,0,1,0,0,3,0,0,0,0,0,0,0,615,1,No
1,0,1,0,0,3,0,0,0,0,0,0,0,615,1,No
1,1,1,0,0,3,0,0,0,0,0,0,0,615,0,No
10,4,14,0,0,4,0,0,0,0,0,0,0,516,1,No
16,2,25,0,0,4,0,0,0,0,0,0,0,516,1,No
1,0,1,0,0,3,0,0,0,0,0,0,0,615,0,No
4,0,4,0,0,3,0,0,0,0,0,0,0,615,0,No
13,4,16,0,0,4,0,0,0,0,0,0,0,516,0,No
20,7,35,0,0,4,0,0,0,0,0,0,0,516,1,No
1,4,1,0,0,4,0,0,0,0,0,0,0,528,0,No
0,0,0,0,0,3,0,0,0,0,0,0,0,1015,0,No
1,0,16,0,0,3,0,0,0,0,0,0,0,433,0,No
2,0,6,0,0,3,0,0,0,0,0,0,0,479,2,No
6,0,17,19,0,3,13,13,7,7,7,26,39,479,1,Yes
3,0,9,103,0,1,103,103,103,103,7,26,39,8,5,No
2,0,9,2,1,3,1,1,0,0,7,26,39,479,2,No
5,0,17,0,0,3,0,0,0,0,0,0,0,479,1,No
1,0,10,0,0,1,0,0,0,0,0,0,0,118,5,No
4,0,5,12,0,2,8,8,4,4,7,26,39,71,1,No
1,0,2,0,0,4,0,0,0,0,0,0,0,1064,0,No
2,0,2,0,0,4,0,0,0,0,0,0,0,440,0,No
3,4,16,0,1,3,0,0,0,0,0,0,0,72,4,No
8,6,9,0,2,2,0,0,0,0,0,0,0,91,0,No
12,7,15,0,0,3,0,0,0,0,0,0,0,91,0,No
2,3,2,0,0,4,0,0,0,0,0,0,0,1064,0,No
4,5,14,0,0,2,0,0,0,0,0,0,0,91,0,No
5,3,5,0,0,3,0,0,0,0,0,0,0,86,0,No
9,8,24,0,1,4,0,0,0,0,0,0,0,87,0,No
12,6,13,0,2,3,0,0,0,0,0,0,0,90,0,No
10,9,12,0,1,3,0,0,0,0,0,0,0,90,0,No
13,5,13,0,0,2,0,0,0,0,0,0,0,92,0,No
6,8,13,0,1,3,0,0,0,0,0,0,0,86,0,No
1,0,1,0,0,4,0,0,0,0,0,0,0,1064,0,No
4,2,8,0,1,5,0,0,0,0,0,0,0,1064,0,No
15,15,35,0,2,4,0,0,0,0,0,0,0,87,1,No
6,3,9,0,0,3,0,0,0,0,0,0,0,85,0,No
25,8,25,0,1,4,0,0,0,0,0,0,0,92,0,No
5,3,5,0,1,1,0,0,0,0,0,0,0,48,0,No
3,3,3,0,0,5,0,0,0,0,0,0,0,1064,0,No
3,0,3,0,0,4,0,0,0,0,0,0,0,1064,0,No
0,0,0,0,0,5,0,0,0,0,0,0,0,625,1,No
0,0,0,0,0,5,0,0,0,0,0,0,0,625,0,No
0,1,0,0,0,4,0,0,0,0,0,0,0,625,0,No
0,0,0,0,0,4,0,0,0,0,0,0,0,625,0,No
35,1,42,0,0,5,0,0,0,0,0,0,0,980,0,No
11,1,12,0,0,4,0,0,0,0,0,0,0,980,0,No
11,0,12,0,0,5,0,0,0,0,0,0,0,1064,2,No
2,1,2,0,0,4,0,0,0,0,0,0,0,1064,0,No
25,0,38,0,0,4,0,0,0,0,0,0,0,1000,0,No
15,1,26,0,0,5,0,0,0,0,0,0,0,980,2,No
2,1,2,0,0,5,0,0,0,0,0,0,0,625,0,No
1,0,1,0,0,4,0,0,0,0,0,0,0,419,0,No
12,1,14,0,0,3,0,0,0,0,0,0,0,394,0,No
10,3,10,0,0,5,0,0,0,0,0,0,0,419,0,No
0,0,0,0,0,4,0,0,0,0,0,0,0,1025,1,No
7,1,11,0,0,4,0,0,0,0,0,0,0,911,0,No
3,1,3,0,0,4,0,0,0,0,0,0,0,1021,0,No
5,1,6,0,0,4,0,0,0,0,0,0,0,1064,1,No
29,1,51,0,0,4,0,0,0,0,0,0,0,911,1,No
3,1,3,0,0,4,0,0,0,0,0,0,0,1064,0,No
1,0,1,0,0,4,0,0,0,0,0,0,0,1025,0,No
8,3,8,0,1,3,0,0,0,0,0,0,0,91,0,No
12,6,12,0,0,3,0,0,0,0,0,0,0,91,0,Yes
2,1,2,0,0,4,0,0,0,0,0,0,0,1064,0,No
0,0,0,0,0,5,0,0,0,0,0,0,0,1025,0,No
4,2,4,0,0,2,0,0,0,0,0,0,0,91,1,No
5,1,5,0,0,3,0,0,0,0,0,0,0,86,1,No
7,3,7,0,1,3,0,0,0,0,0,0,0,87,0,Yes
12,3,12,0,1,3,0,0,0,0,0,0,0,90,0,No
2,0,2,0,0,5,0,0,0,0,0,0,0,1064,0,No
10,6,10,0,0,3,0,0,0,0,0,0,0,90,0,No
13,3,13,0,0,3,0,0,0,0,0,0,0,92,0,Yes
5,3,5,0,0,3,0,0,0,0,0,0,0,86,0,No
14,8,14,0,0,4,0,0,0,0,0,0,0,87,0,Yes
6,1,6,0,0,3,0,0,0,0,0,0,0,86,1,No
25,6,25,0,1,5,0,0,0,0,0,0,0,92,0,Yes
5,2,5,0,1,5,0,0,0,0,0,0,0,1064,0,No
3,2,3,0,0,3,0,0,0,0,0,0,0,91,0,No
20,0,29,0,0,6,0,0,0,0,0,0,0,1031,1,No
10,1,14,0,0,4,0,0,0,0,0,0,0,902,0,No
2,1,2,0,0,4,0,0,0,0,0,0,0,1064,0,No
2,2,2,0,0,4,0,0,0,0,0,0,0,1064,0,No
8,1,13,0,0,5,0,0,0,0,0,0,0,1064,2,No
6,1,8,0,0,2,0,0,0,0,0,0,0,23,0,No
9,1,16,0,0,1,0,0,0,0,0,0,0,23,1,No
4,1,4,0,0,4,0,0,0,0,0,0,0,1064,0,No
14,2,14,46,0,4,28,28,10,10,7,26,39,1002,0,No
23,3,31,52,0,7,31,31,10,10,7,26,39,1004,2,No
5,1,7,0,1,5,0,0,0,0,0,0,0,440,0,No
3,1,3,0,0,5,0,0,0,0,0,0,0,1064,0,No
2,0,2,0,0,4,0,0,0,0,0,0,0,1021,0,No
3,1,3,0,0,1,0,0,0,0,0,0,0,92,0,No
3,1,3,0,0,4,0,0,0,0,0,0,0,1064,0,No
4,2,4,0,0,4,0,0,0,0,0,0,0,1064,0,No
3,1,3,0,0,4,0,0,0,0,0,0,0,1064,0,No
16,3,16,0,0,5,0,0,0,0,0,0,0,1009,0,No
11,2,27,0,1,4,0,0,0,0,0,0,0,144,2,No
12,0,12,0,0,5,0,0,0,0,0,0,0,1064,2,No
24,4,27,0,0,6,0,0,0,0,0,0,0,521,0,No
16,1,18,0,0,5,0,0,0,0,0,0,0,514,1,No
2,2,2,0,0,4,0,0,0,0,0,0,0,1064,0,No
6,2,6,0,0,4,0,0,0,0,0,0,0,1064,0,No
3,1,3,0,0,1,0,0,0,0,0,0,0,92,0,No
6,1,9,0,0,2,0,0,0,0,0,0,0,71,1,No
8,2,8,0,0,5,0,0,0,0,0,0,0,416,0,No
18,3,18,0,0,4,0,0,0,0,0,0,0,902,0,No
2,0,2,0,0,4,0,0,0,0,0,0,0,625,0,No
24,4,32,0,0,5,0,0,0,0,0,0,0,419,0,No
42,4,42,0,1,4,0,0,0,0,0,0,0,1000,0,No
30,0,37,0,0,5,0,0,0,0,0,0,0,993,1,No
12,0,16,0,0,5,0,0,0,0,0,0,0,1064,0,No
18,1,19,0,0,6,0,0,0,0,0,0,0,1064,0,No
3,1,3,0,0,1,0,0,0,0,0,0,0,92,0,No
2,2,2,0,0,4,0,0,0,0,0,0,0,1064,0,No
18,0,18,0,0,4,0,0,0,0,0,0,0,625,0,No
2,0,2,0,0,4,0,0,0,0,0,0,0,902,0,No
12,1,16,0,0,6,0,0,0,0,0,0,0,902,0,No
1,0,1,0,0,5,0,0,0,0,0,0,0,1064,0,No
10,3,13,0,0,5,0,0,0,0,0,0,0,511,1,No
25,0,31,0,0,5,0,0,0,0,0,0,0,1031,1,No
3,1,3,0,0,4,0,0,0,0,0,0,0,1064,0,No
2,0,2,0,0,5,0,0,0,0,0,0,0,1064,0,No
4,1,4,0,0,4,0,0,0,0,0,0,0,625,0,No
20,2,21,0,0,4,0,0,0,0,0,0,0,527,0,No
20,1,27,0,0,6,0,0,0,0,0,0,0,527,2,No
0,1,0,0,0,4,0,0,0,0,0,0,0,1025,1,No
20,1,24,0,0,4,0,0,0,0,0,0,0,1025,0,No
1,0,1,0,0,4,0,0,0,0,0,0,0,1025,1,No
2,0,4,0,0,4,0,0,0,0,0,0,0,1064,3,No
2,0,2,0,0,5,0,0,0,0,0,0,0,1064,2,No
5,3,9,0,0,2,0,0,0,0,0,0,0,378,0,No
2,0,2,0,0,5,0,0,0,0,0,0,0,1025,2,No
1,0,1,0,0,5,0,0,0,0,0,0,0,1025,1,No
15,1,17,0,0,5,0,0,0,0,0,0,0,1064,1,No
7,1,7,0,0,4,0,0,0,0,0,0,0,1064,1,No
1,0,1,0,0,4,0,0,0,0,0,0,0,1025,0,No
1,0,1,0,0,4,0,0,0,0,0,0,0,1025,1,No
2,0,3,1,0,2,1,1,1,1,7,26,39,351,1,No
5,0,17,0,0,7,0,0,0,0,0,0,0,1025,8,Yes
1,0,1,0,0,4,0,0,0,0,0,0,0,1025,1,No
0,0,0,0,1,1,0,0,0,0,0,0,0,45,0,No
48,1,52,0,0,5,0,0,0,0,0,0,0,594,0,No
2,0,2,0,0,4,0,0,0,0,0,0,0,1025,1,No
0,0,0,0,0,4,0,0,0,0,0,0,0,1025,0,No
2,0,3,0,0,4,0,0,0,0,0,0,0,1025,1,No
0,0,0,0,0,4,0,0,0,0,0,0,0,1025,0,No
1,0,1,0,0,4,0,0,0,0,0,0,0,1025,1,No
1,0,1,0,0,4,0,0,0,0,0,0,0,1025,1,No
2,4,2,0,1,4,0,0,0,0,0,0,0,625,1,No
10,2,11,0,0,7,0,0,0,0,0,0,0,1025,0,No
3,0,6,0,1,4,0,0,0,0,0,0,0,1009,1,No
2,0,9,0,0,4,0,0,0,0,0,0,0,427,0,No
1,0,1,0,0,4,0,0,0,0,0,0,0,1025,0,No
2,0,5,0,0,4,0,0,0,0,0,0,0,625,3,No
0,0,0,0,0,4,0,0,0,0,0,0,0,1025,0,No
1,0,1,0,0,4,0,0,0,0,0,0,0,625,1,No
0,0,0,0,0,4,0,0,0,0,0,0,0,625,0,No
0,0,0,0,0,4,0,0,0,0,0,0,0,1025,0,No
11,11,53,0,0,6,0,0,0,0,0,0,0,507,0,No
17,10,34,0,1,4,0,0,0,0,0,0,0,76,1,No
7,1,14,0,2,5,0,0,0,0,0,0,0,1009,0,No
1,1,11,0,2,4,0,0,0,0,0,0,0,1009,2,No
8,1,8,0,0,5,0,0,0,0,0,0,0,1009,0,No
8,13,18,0,0,6,0,0,0,0,0,0,0,1025,0,No
1,1,8,0,0,3,0,0,0,0,0,0,0,888,1,No
13,31,14,0,1,7,0,0,0,0,0,0,0,1025,0,No
4,4,10,0,1,6,0,0,0,0,0,0,0,517,2,Yes
3,0,3,0,0,2,0,0,0,0,0,0,0,226,0,No
0,0,0,0,0,3,0,0,0,0,0,0,0,1025,0,No
3,1,4,0,0,5,0,0,0,0,0,0,0,625,2,No
6,1,10,0,0,4,0,0,0,0,0,0,0,406,0,No
3,0,3,0,0,2,0,0,0,0,0,0,0,63,1,No
2,0,2,0,0,5,0,0,0,0,0,0,0,625,0,No
10,0,21,0,2,6,0,0,0,0,0,0,0,779,3,No
7,2,12,0,0,4,0,0,0,0,0,0,0,784,1,No
1,1,4,0,0,3,0,0,0,0,0,0,0,1064,1,No
1,6,3,0,1,4,0,0,0,0,0,0,0,694,0,No
13,2,13,0,0,5,0,0,0,0,0,0,0,916,2,No
2,0,3,0,0,3,0,0,0,0,0,0,0,1064,0,No
7,0,12,0,0,5,0,0,0,0,0,0,0,624,1,No
2,3,12,0,2,6,0,0,0,0,0,0,0,742,2,No
2,0,7,0,1,5,0,0,0,0,0,0,0,744,0,No
7,0,7,0,0,3,0,0,0,0,0,0,0,1064,0,No
8,6,33,0,0,3,0,0,0,0,0,0,0,407,3,No
2,0,8,0,0,6,0,0,0,0,0,0,0,853,0,No
8,2,28,0,0,3,0,0,0,0,0,0,0,406,1,No
2,0,4,0,0,1,0,0,0,0,0,0,0,63,0,No
4,1,4,0,0,3,0,0,0,0,0,0,0,1025,0,No
3,6,8,0,1,6,0,0,0,0,0,0,0,624,1,No
2,3,2,0,0,4,0,0,0,0,0,0,0,694,0,No
10,12,29,0,1,5,0,0,0,0,0,0,0,524,2,No
1,2,1,0,1,4,0,0,0,0,0,0,0,1025,0,No
9,5,16,0,0,7,0,0,0,0,0,0,0,1025,2,No
6,6,7,0,0,1,0,0,0,0,0,0,0,23,1,No
4,2,4,0,0,1,0,0,0,0,0,0,0,23,0,No
36,19,54,0,1,7,0,0,0,0,0,0,0,1025,16,No
4,4,7,0,1,5,0,0,0,0,0,0,0,919,4,No
3,5,13,0,0,1,0,0,0,0,0,0,0,29,0,No
13,15,42,385,1,6,213,213,41,41,7,26,39,1000,3,No
4,6,12,0,2,6,0,0,0,0,0,0,0,1000,1,No
11,3,16,0,3,6,0,0,0,0,0,0,0,973,1,No
2,9,5,0,2,4,0,0,0,0,0,0,0,419,0,No
0,0,0,0,0,3,0,0,0,0,0,0,0,1025,0,No
0,0,0,0,0,3,0,0,0,0,0,0,0,625,0,No
0,0,0,0,0,3,0,0,0,0,0,0,0,1025,0,No
0,1,0,0,0,2,0,0,0,0,0,0,0,66,2,No
11,9,15,0,1,7,0,0,0,0,0,0,0,1024,9,No
0,2,0,0,0,5,0,0,0,0,0,0,0,1023,1,No
4,5,4,0,1,5,0,0,0,0,0,0,0,973,2,No
7,12,17,12,2,7,6,6,0,0,1,2,3,514,3,Yes
0,3,0,0,1,6,0,0,0,0,0,0,0,514,0,No
7,13,27,11,2,7,5,5,-1,0,1,2,3,524,6,No
0,2,0,0,1,4,0,0,0,0,0,0,0,694,0,No
3,2,3,0,0,4,0,0,0,0,0,0,0,406,0,No
39,19,75,0,2,7,0,0,0,0,0,0,0,406,3,No
11,18,70,0,3,5,0,0,0,0,0,0,0,394,5,No
25,17,40,0,2,7,0,0,0,0,0,0,0,1025,5,Yes
5,8,14,1,7,6,0,0,-1,0,1,5,5,994,3,Yes
35,14,43,13,3,6,6,6,-1,0,7,26,39,1025,15,Yes
9,9,31,0,0,4,0,0,0,0,0,0,0,407,3,No
5,5,9,0,3,7,0,0,0,0,0,0,0,973,1,No
4,5,6,0,0,4,0,0,0,0,0,0,0,157,1,No
1,3,1,0,0,4,0,0,0,0,0,0,0,694,0,No
8,8,14,0,1,7,0,0,0,0,0,0,0,1025,5,No
1,2,1,0,0,6,0,0,0,0,0,0,0,624,0,No
19,14,35,0,2,7,0,0,0,0,0,0,0,1018,2,No
10,11,41,0,2,8,0,0,0,0,0,0,0,1000,6,No
5,5,8,0,1,6,0,0,0,0,0,0,0,433,2,No
1,6,2,0,1,6,0,0,0,0,0,0,0,624,0,No
11,14,19,0,3,7,0,0,0,0,0,0,0,889,2,No
11,12,16,0,1,7,0,0,0,0,0,0,0,1025,0,Yes
24,14,37,0,1,7,0,0,0,0,0,0,0,524,8,No
10,7,18,0,3,6,0,0,0,0,0,0,0,973,4,No
3,5,5,0,0,3,0,0,0,0,0,0,0,157,2,No
2,6,11,0,0,4,0,0,0,0,0,0,0,419,3,No
2,3,2,0,0,5,0,0,0,0,0,0,0,694,0,No
7,9,11,0,3,7,0,0,0,0,0,0,0,1025,4,No
2,1,2,0,0,4,0,0,0,0,0,0,0,694,0,No
4,6,12,0,1,5,0,0,0,0,0,0,0,694,1,No
0,2,0,0,0,5,0,0,0,0,0,0,0,1025,1,No
12,15,51,0,0,3,0,0,0,0,0,0,0,105,1,Yes
17,9,23,0,4,7,0,0,0,0,0,0,0,517,1,No
0,3,0,0,0,5,0,0,0,0,0,0,0,419,0,No
8,7,9,0,0,2,0,0,0,0,0,0,0,23,1,Yes
8,19,38,0,1,7,0,0,0,0,0,0,0,609,2,No
8,7,12,0,2,5,0,0,0,0,0,0,0,692,0,No
2,0,2,0,0,4,0,0,0,0,0,0,0,1025,0,No
11,13,29,0,1,5,0,0,0,0,0,0,0,609,0,No
10,13,19,0,2,7,0,0,0,0,0,0,0,1025,6,No
15,15,23,0,3,7,0,0,0,0,0,0,0,575,3,No
14,14,33,0,1,7,0,0,0,0,0,0,0,581,1,No
11,15,20,0,2,7,0,0,0,0,0,0,0,1025,6,No
6,14,27,0,2,7,0,0,0,0,0,0,0,419,2,No
7,10,11,0,0,7,0,0,0,0,0,0,0,419,1,No
19,17,88,138,7,8,76,76,14,14,1,5,5,419,3,Yes
5,5,15,0,0,7,0,0,0,0,0,0,0,533,1,No
3,12,15,0,1,6,0,0,0,0,0,0,0,609,1,Yes
19,10,36,0,0,3,0,0,0,0,0,0,0,157,0,No
1,7,1,0,1,6,0,0,0,0,0,0,0,510,2,Yes
3,3,3,0,0,3,0,0,0,0,0,0,0,105,0,No
11,11,15,0,2,4,0,0,0,0,0,0,0,105,1,No
6,6,11,0,0,7,0,0,0,0,0,0,0,533,1,No
1,4,1,0,0,4,0,0,0,0,0,0,0,510,6,No
1,7,1,0,2,5,0,0,0,0,0,0,0,510,0,No
12,15,22,0,2,7,0,0,0,0,0,0,0,1025,6,No
14,2,28,0,0,3,0,0,0,0,0,0,0,105,4,No
3,6,4,0,2,5,0,0,0,0,0,0,0,157,0,No
9,14,23,0,0,6,0,0,0,0,0,0,0,419,5,No
16,17,26,0,2,7,0,0,0,0,0,0,0,1025,6,No
1,5,2,0,0,6,0,0,0,0,0,0,0,521,0,No
3,5,5,0,1,5,0,0,0,0,0,0,0,1025,0,Yes
14,21,32,0,5,3,0,0,0,0,0,0,0,105,2,No
10,10,24,0,2,5,0,0,0,0,0,0,0,692,0,No
7,6,7,0,1,6,0,0,0,0,0,0,0,1064,0,Yes
3,2,3,0,2,6,0,0,0,0,0,0,0,524,0,No
2,2,2,0,1,5,0,0,0,0,0,0,0,821,0,No
1,1,1,0,0,5,0,0,0,0,0,0,0,1064,0,No
6,2,6,0,0,6,0,0,0,0,0,0,0,973,0,No
13,11,26,0,3,6,0,0,0,0,0,0,0,1000,1,No
2,0,2,0,0,4,0,0,0,0,0,0,0,1025,0,No
0,0,0,0,0,4,0,0,0,0,0,0,0,1025,1,No
7,8,9,0,0,6,0,0,0,0,0,0,0,973,0,No
7,7,7,0,0,6,0,0,0,0,0,0,0,514,0,No
7,7,16,0,3,7,0,0,0,0,0,0,0,581,1,Yes
11,5,12,0,0,6,0,0,0,0,0,0,0,406,0,Yes
7,7,10,0,0,6,0,0,0,0,0,0,0,994,0,No
11,10,11,0,0,7,0,0,0,0,0,0,0,994,0,Yes
19,11,32,0,1,7,0,0,0,0,0,0,0,1064,0,No
17,13,23,0,0,8,0,0,0,0,0,0,0,889,0,Yes
5,5,5,0,0,8,0,0,0,0,0,0,0,507,0,No
14,13,16,0,1,7,0,0,0,0,0,0,0,1015,0,Yes
2,4,2,0,0,6,0,0,0,0,0,0,0,821,0,No
4,0,4,0,0,1,0,0,0,0,0,0,0,406,0,No
2,1,3,0,1,1,0,0,0,0,0,0,0,45,0,No
2,1,3,0,1,3,0,0,0,0,0,0,0,744,0,No
2,0,2,0,1,3,0,0,0,0,0,0,0,744,0,No
4,1,4,0,1,5,0,0,0,0,0,0,0,514,1,No
3,1,4,0,0,1,0,0,0,0,0,0,0,23,0,No
1,2,10,0,1,4,0,0,0,0,0,0,0,511,0,No
0,0,0,0,0,4,0,0,0,0,0,0,0,1025,0,No
0,0,0,0,0,4,0,0,0,0,0,0,0,1025,0,No
3,0,3,0,0,5,0,0,0,0,0,0,0,514,0,No
1,1,2,0,0,4,0,0,0,0,0,0,0,514,0,No
1,2,3,0,0,4,0,0,0,0,0,0,0,514,0,No
1,0,1,0,0,4,0,0,0,0,0,0,0,1025,0,No
3,0,3,0,1,5,0,0,0,0,0,0,0,1064,3,No
22,3,53,0,2,4,0,0,0,0,0,0,0,433,0,No
5,0,16,0,1,6,0,0,0,0,0,0,0,973,1,No
2,0,2,0,0,3,0,0,0,0,0,0,0,783,0,No
5,0,5,0,2,6,0,0,0,0,0,0,0,973,1,No
1,0,1,0,0,3,0,0,0,0,0,0,0,973,0,No
3,1,3,0,1,5,0,0,0,0,0,0,0,581,0,No
2,0,3,0,0,3,0,0,0,0,0,0,0,973,0,No
5,0,8,0,2,6,0,0,0,0,0,0,0,973,2,No
1,0,1,0,0,4,0,0,0,0,0,0,0,1025,0,No
6,1,32,0,0,6,0,0,0,0,0,0,0,581,1,No
4,0,5,0,0,6,0,0,0,0,0,0,0,581,3,No
9,0,23,0,1,7,0,0,0,0,0,0,0,581,6,No
19,0,35,0,2,6,0,0,0,0,0,0,0,581,1,No
0,0,0,0,0,3,0,0,0,0,0,0,0,1025,0,No
8,0,14,0,0,5,0,0,0,0,0,0,0,581,0,No
1,0,1,0,2,1,0,0,0,0,0,0,0,55,0,No
9,0,30,0,0,3,0,0,0,0,0,0,0,394,1,No
16,1,20,0,0,2,0,0,0,0,0,0,0,108,5,No
1,0,1,0,0,5,0,0,0,0,0,0,0,625,0,No
6,9,7,0,1,4,0,0,0,0,0,0,0,973,6,No
6,4,7,0,0,4,0,0,0,0,0,0,0,510,0,No
1,1,1,0,0,4,0,0,0,0,0,0,0,625,0,No
2,0,2,0,0,2,0,0,0,0,0,0,0,16,0,No
2,3,7,0,0,2,0,0,0,0,0,0,0,386,2,No
12,0,20,0,0,2,0,0,0,0,0,0,0,386,0,No
14,35,128,0,3,7,0,0,0,0,0,0,0,398,8,Yes
11,8,86,0,1,5,0,0,0,0,0,0,0,163,1,No
2,0,14,0,0,3,0,0,0,0,0,0,0,931,8,No
7,11,13,11,1,7,1,1,-9,0,7,26,39,940,3,No
10,23,37,312,0,1,306,304,300,304,2,15,28,2,10,No
2,8,22,0,1,5,0,0,0,0,0,0,0,372,3,No
13,14,34,3,1,8,1,1,-1,0,1,8,15,617,6,No
1,4,9,0,0,5,0,0,0,0,0,0,0,427,0,Yes
2,2,3,15,1,6,15,15,15,15,1,8,15,680,0,No
2,1,2,0,1,5,0,0,0,0,0,0,0,625,0,No
5,3,11,0,1,3,0,0,0,0,0,0,0,80,1,No
4,10,27,0,1,6,0,0,0,0,0,0,0,514,0,No
6,23,25,0,0,7,0,0,0,0,0,0,0,514,1,Yes
13,3,18,0,0,6,0,0,0,0,0,0,0,1018,0,No
2,0,2,0,0,3,0,0,0,0,0,0,0,1025,0,No
17,4,48,0,2,5,0,0,0,0,0,0,0,1053,3,No
25,0,42,0,1,4,0,0,0,0,0,0,0,1018,0,No
6,0,15,0,2,5,0,0,0,0,0,0,0,1064,1,No
6,2,6,0,0,6,0,0,0,0,0,0,0,1038,0,No
9,1,9,0,0,4,0,0,0,0,0,0,0,1021,1,No
8,0,13,0,0,5,0,0,0,0,0,0,0,419,0,No
12,1,19,0,0,2,0,0,0,0,0,0,0,144,2,No
17,2,24,0,0,5,0,0,0,0,0,0,0,1009,0,No
21,4,28,0,1,5,0,0,0,0,0,0,0,1051,3,No
8,0,10,0,0,5,0,0,0,0,0,0,0,699,0,No
8,1,8,0,0,5,0,0,0,0,0,0,0,1021,1,No
0,1,0,0,0,5,0,0,0,0,0,0,0,1018,0,No
23,4,30,68,0,5,46,46,24,24,7,26,39,1029,2,No
4,1,4,0,0,4,0,0,0,0,0,0,0,1053,0,No
44,7,49,27,0,6,12,12,-3,0,1,8,15,1009,1,No
23,5,31,0,0,5,0,0,0,0,0,0,0,521,0,No
16,1,17,0,0,5,0,0,0,0,0,0,0,514,0,No
0,1,0,0,0,4,0,0,0,0,0,0,0,1018,0,No
6,4,6,2,2,5,1,1,0,0,1,8,15,594,0,No
18,5,18,0,0,5,0,0,0,0,0,0,0,902,0,No
13,2,27,0,0,4,0,0,0,0,0,0,0,419,1,No
6,1,8,0,0,4,0,0,0,0,0,0,0,419,0,No
5,2,7,2,0,4,1,1,0,0,1,8,15,419,0,No
8,1,8,0,0,5,0,0,0,0,0,0,0,625,0,No
0,1,0,0,0,5,0,0,0,0,0,0,0,1018,0,No
19,4,21,3,0,7,2,2,1,1,1,8,15,625,0,No
4,0,4,0,0,3,0,0,0,0,0,0,0,1064,0,No
6,2,6,0,0,4,0,0,0,0,0,0,0,1053,0,No
5,0,10,0,0,4,0,0,0,0,0,0,0,902,0,No
4,0,4,0,0,3,0,0,0,0,0,0,0,902,0,No
8,4,11,0,0,4,0,0,0,0,0,0,0,511,0,No
11,4,19,0,0,5,0,0,0,0,0,0,0,1018,0,No
5,3,7,0,0,5,0,0,0,0,0,0,0,860,0,No
3,2,4,0,0,5,0,0,0,0,0,0,0,1064,0,No
4,3,6,0,0,5,0,0,0,0,0,0,0,1018,0,No
0,1,0,0,0,4,0,0,0,0,0,0,0,1018,0,No
0,1,0,0,0,4,0,0,0,0,0,0,0,1018,0,No
5,3,7,0,0,6,0,0,0,0,0,0,0,1018,0,No
0,1,0,0,0,4,0,0,0,0,0,0,0,1018,0,No
24,7,36,0,0,6,0,0,0,0,0,0,0,988,0,No
0,0,0,0,0,3,0,0,0,0,0,0,0,1025,0,No
11,4,19,0,0,5,0,0,0,0,0,0,0,1018,0,No
5,3,7,0,0,5,0,0,0,0,0,0,0,860,0,No
3,2,4,0,0,5,0,0,0,0,0,0,0,1064,0,No
4,3,6,0,0,5,0,0,0,0,0,0,0,1018,0,No
0,1,0,0,0,4,0,0,0,0,0,0,0,1018,0,No
8,3,19,0,0,2,0,0,0,0,0,0,0,144,1,No
3,2,5,0,0,5,0,0,0,0,0,0,0,1064,0,No
0,1,0,0,0,4,0,0,0,0,0,0,0,1018,0,No
5,3,8,0,0,6,0,0,0,0,0,0,0,1018,0,No
0,1,0,0,0,4,0,0,0,0,0,0,0,1018,0,No
45,13,84,0,0,5,0,0,0,0,0,0,0,1018,0,No
53,10,93,0,1,8,0,0,0,0,0,0,0,1018,1,Yes
11,4,19,0,0,5,0,0,0,0,0,0,0,1018,0,No
5,3,7,0,0,5,0,0,0,0,0,0,0,860,0,No
3,2,4,0,0,5,0,0,0,0,0,0,0,1064,0,No
4,3,6,0,0,5,0,0,0,0,0,0,0,1018,0,No
0,2,0,0,0,4,0,0,0,0,0,0,0,1018,0,No
10,3,23,0,0,2,0,0,0,0,0,0,0,144,1,No
3,2,5,0,0,5,0,0,0,0,0,0,0,1064,0,No
0,2,0,0,0,4,0,0,0,0,0,0,0,1018,0,No
5,3,8,0,0,6,0,0,0,0,0,0,0,1018,0,No
0,2,0,0,0,4,0,0,0,0,0,0,0,1018,0,No
5,2,5,0,0,4,0,0,0,0,0,0,0,1064,0,No
5,2,5,0,0,4,0,0,0,0,0,0,0,1064,0,No
4,5,4,0,0,6,0,0,0,0,0,0,0,1064,0,No
4,3,4,0,0,6,0,0,0,0,0,0,0,1064,0,Yes
5,2,5,0,0,4,0,0,0,0,0,0,0,1064,0,No
4,2,4,0,0,4,0,0,0,0,0,0,0,1064,0,No
2,1,2,0,0,5,0,0,0,0,0,0,0,1025,0,No
4,1,4,0,0,3,0,0,0,0,0,0,0,1025,0,No
5,2,5,0,0,4,0,0,0,0,0,0,0,1064,0,No
5,4,5,0,0,4,0,0,0,0,0,0,0,1064,0,No
6,3,6,0,0,4,0,0,0,0,0,0,0,1064,0,No
5,3,5,0,0,4,0,0,0,0,0,0,0,1064,0,No
5,4,5,0,0,4,0,0,0,0,0,0,0,1064,0,No
1,0,1,0,0,4,0,0,0,0,0,0,0,1025,0,No
0,0,0,0,0,5,0,0,0,0,0,0,0,1025,0,No
4,2,4,0,0,4,0,0,0,0,0,0,0,625,0,No
8,5,8,0,1,4,0,0,0,0,0,0,0,1025,0,No
7,2,7,0,0,4,0,0,0,0,0,0,0,1064,0,Yes
7,3,7,0,0,4,0,0,0,0,0,0,0,1064,0,No
6,4,6,0,0,4,0,0,0,0,0,0,0,1064,0,No
17,8,17,0,0,6,0,0,0,0,0,0,0,1064,1,Yes
5,4,5,0,0,4,0,0,0,0,0,0,0,1064,0,No
10,3,10,0,0,4,0,0,0,0,0,0,0,1064,0,Yes
8,3,8,0,0,4,0,0,0,0,0,0,0,1064,0,No
13,5,13,0,0,6,0,0,0,0,0,0,0,1064,0,Yes
4,2,4,0,0,4,0,0,0,0,0,0,0,625,0,No
5,2,5,0,0,4,0,0,0,0,0,0,0,1064,0,No
5,4,5,0,0,4,0,0,0,0,0,0,0,1064,0,No
8,10,53,0,0,9,0,0,0,0,0,0,0,808,2,Yes
2,0,6,252,1,7,77,52,-98,0,2,15,28,1021,2,No
8,2,12,0,0,4,0,0,0,0,0,0,0,1064,0,Yes
5,2,7,0,0,4,0,0,0,0,0,0,0,1053,0,No
5,2,7,0,0,4,0,0,0,0,0,0,0,1053,0,No
16,16,105,0,0,7,0,0,0,0,0,0,0,1064,11,Yes
5,3,9,0,0,4,0,0,0,0,0,0,0,1053,1,No
4,6,9,0,0,5,0,0,0,0,0,0,0,1053,0,No
2,3,5,166,1,7,23,22,-120,0,2,15,28,1021,2,No
5,2,7,0,0,4,0,0,0,0,0,0,0,1053,0,No
5,7,8,0,0,4,0,0,0,0,0,0,0,1053,0,No
6,5,9,0,0,4,0,0,0,0,0,0,0,1053,0,No
5,4,8,0,0,4,0,0,0,0,0,0,0,427,0,No
5,6,7,0,0,4,0,0,0,0,0,0,0,988,0,No
4,3,4,0,0,4,0,0,0,0,0,0,0,521,0,No
8,6,14,0,0,4,0,0,0,0,0,0,0,594,0,No
7,3,10,0,0,4,0,0,0,0,0,0,0,419,0,Yes
8,4,12,0,0,4,0,0,0,0,0,0,0,419,0,No
6,14,23,0,0,6,0,0,0,0,0,0,0,1009,0,No
21,15,45,0,0,6,0,0,0,0,0,0,0,1053,0,Yes
5,7,8,0,0,4,0,0,0,0,0,0,0,1053,0,No
11,6,21,0,0,5,0,0,0,0,0,0,0,1053,0,Yes
9,7,14,0,0,4,0,0,0,0,0,0,0,1053,0,No
15,11,32,0,0,9,0,0,0,0,0,0,0,808,0,Yes
4,3,4,0,0,4,0,0,0,0,0,0,0,521,0,No
5,2,7,0,0,4,0,0,0,0,0,0,0,1053,0,No
5,7,8,0,0,4,0,0,0,0,0,0,0,1053,0,No
2,0,67,0,0,2,0,0,0,0,0,0,0,265,7,No
2,2,2,0,0,4,0,0,0,0,0,0,0,1035,0,No
1,2,2,6,0,5,3,3,0,0,1,1,2,1064,0,No
1,3,6,0,0,6,0,0,0,0,0,0,0,1064,0,No
1,2,2,6,0,5,5,5,4,4,1,1,2,1035,0,No
0,1,0,0,0,5,0,0,0,0,0,0,0,1064,0,No
0,0,0,0,0,3,0,0,0,0,0,0,0,1064,0,No
1,1,1,0,0,3,0,0,0,0,0,0,0,1035,0,No
0,0,0,0,0,3,0,0,0,0,0,0,0,1064,1,No
0,0,0,0,0,4,0,0,0,0,0,0,0,860,0,No
2,2,8,0,0,4,0,0,0,0,0,0,0,860,2,No
0,0,0,0,0,4,0,0,0,0,0,0,0,860,0,No
2,4,11,0,0,4,0,0,0,0,0,0,0,860,3,No
0,0,0,6,0,4,3,3,0,0,7,26,39,860,0,No
2,3,3,43,0,2,23,17,3,4,8,30,44,161,3,No
0,0,0,0,0,4,0,0,0,0,0,0,0,860,0,No
2,2,5,0,0,4,0,0,0,0,0,0,0,860,2,No
1,0,2,0,0,4,0,0,0,0,0,0,0,860,0,No
0,0,0,0,0,4,0,0,0,0,0,0,0,860,0,No
4,5,19,0,0,7,0,0,0,0,0,0,0,860,3,No
4,1,7,0,0,4,0,0,0,0,0,0,0,860,0,No
0,0,0,0,0,4,0,0,0,0,0,0,0,625,0,No
2,2,7,0,0,4,0,0,0,0,0,0,0,521,1,No
0,0,0,0,0,4,0,0,0,0,0,0,0,860,0,No
2,9,21,0,1,5,0,0,0,0,0,0,0,594,3,No
0,0,0,0,0,4,0,0,0,0,0,0,0,625,0,No
2,4,10,0,0,4,0,0,0,0,0,0,0,860,2,No
0,0,0,0,0,4,0,0,0,0,0,0,0,625,0,No
2,3,6,0,0,4,0,0,0,0,0,0,0,625,2,No
0,0,0,0,0,4,0,0,0,0,0,0,0,625,0,No
2,2,8,0,0,8,0,0,0,0,0,0,0,625,2,No
0,0,0,0,0,4,0,0,0,0,0,0,0,860,0,No
2,3,9,0,0,4,0,0,0,0,0,0,0,860,2,No
0,0,0,0,0,4,0,0,0,0,0,0,0,625,0,No
2,3,9,0,0,8,0,0,0,0,0,0,0,619,1,No
0,0,0,0,0,4,0,0,0,0,0,0,0,860,0,No
2,2,4,0,0,2,0,0,0,0,0,0,0,161,1,No
0,0,0,0,0,5,0,0,0,0,0,0,0,860,0,No
4,13,24,0,0,7,0,0,0,0,0,0,0,531,1,No
0,0,0,0,0,4,0,0,0,0,0,0,0,860,0,No
2,4,8,0,0,4,0,0,0,0,0,0,0,531,1,No
1,3,23,0,2,7,0,0,0,0,0,0,0,524,0,No
0,0,0,0,0,4,0,0,0,0,0,0,0,1025,0,No
12,2,58,0,0,7,0,0,0,0,0,0,0,581,0,No
0,0,0,0,0,4,0,0,0,0,0,0,0,1025,0,No
0,0,0,0,0,5,0,0,0,0,0,0,0,1025,0,No
1,2,1,0,0,4,0,0,0,0,0,0,0,594,1,No
1,7,18,0,0,5,0,0,0,0,0,0,0,594,1,No
0,0,0,0,0,1,0,0,0,0,0,0,0,163,1,No
1,1,1,0,1,6,0,0,0,0,0,0,0,524,0,No
16,4,16,0,0,3,0,0,0,0,0,0,0,77,0,No
4,3,4,0,0,4,0,0,0,0,0,0,0,108,0,No
2,2,2,0,0,5,0,0,0,0,0,0,0,625,2,No
2,2,2,0,0,5,0,0,0,0,0,0,0,1025,0,No
16,1,46,0,0,5,0,0,0,0,0,0,0,979,0,No
1,0,1,0,0,4,0,0,0,0,0,0,0,1064,0,No
1,1,1,0,0,4,0,0,0,0,0,0,0,416,0,No
4,2,4,15,0,2,9,9,3,3,1,2,3,164,0,No
0,0,0,0,0,6,0,0,0,0,0,0,0,1025,0,No
10,21,61,7,1,5,2,2,-3,0,1,2,3,164,10,No
10,0,18,0,0,2,0,0,0,0,0,0,0,71,2,No
21,10,93,41,0,8,6,6,-29,0,7,26,39,937,37,No
1,4,3,0,0,4,0,0,0,0,0,0,0,142,0,No
2,8,11,0,0,3,0,0,0,0,0,0,0,120,0,Yes
2,5,10,15,0,3,10,10,5,5,1,2,3,164,1,No
19,26,53,0,4,9,0,0,0,0,0,0,0,1002,4,No
0,0,0,0,0,3,0,0,0,0,0,0,0,1025,0,No
4,4,7,0,0,4,0,0,0,0,0,0,0,617,1,No
2,2,5,0,0,3,0,0,0,0,0,0,0,625,2,No
3,5,12,0,0,4,0,0,0,0,0,0,0,493,1,No
0,0,0,0,0,3,0,0,0,0,0,0,0,1025,0,No
4,5,5,0,1,4,0,0,0,0,0,0,0,625,0,No
0,0,0,0,0,4,0,0,0,0,0,0,0,625,0,No
2,12,11,0,0,4,0,0,0,0,0,0,0,419,1,No
0,0,0,0,0,3,0,0,0,0,0,0,0,625,1,No
2,1,2,0,0,5,0,0,0,0,0,0,0,419,0,No
0,1,0,0,0,4,0,0,0,0,0,0,0,625,0,No
1,2,10,0,1,2,0,0,0,0,0,0,0,394,0,No
6,22,44,0,2,5,0,0,0,0,0,0,0,625,5,Yes
4,11,15,0,0,4,0,0,0,0,0,0,0,1064,6,No
2,7,3,0,0,4,0,0,0,0,0,0,0,843,0,No
9,15,17,9,2,7,5,5,1,1,1,7,13,989,2,No
12,22,33,59,2,9,17,17,-25,0,7,26,39,1004,4,No
5,13,11,0,1,6,0,0,0,0,0,0,0,1016,0,No
10,14,21,0,1,6,0,0,0,0,0,0,0,786,4,No
6,9,10,0,1,6,0,0,0,0,0,0,0,521,3,No
15,18,24,0,3,7,0,0,0,0,0,0,0,581,2,Yes
16,21,40,2,1,7,1,1,0,0,1,7,13,419,7,Yes
9,29,29,0,1,8,0,0,0,0,0,0,0,1002,1,No
11,27,27,0,0,7,0,0,0,0,0,0,0,993,0,Yes
5,13,11,0,1,6,0,0,0,0,0,0,0,1021,0,No
18,30,53,0,1,7,0,0,0,0,0,0,0,898,7,Yes
1,0,1,0,0,4,0,0,0,0,0,0,0,1064,0,No
39,32,65,0,2,8,0,0,0,0,0,0,0,1031,9,Yes
8,13,15,0,0,7,0,0,0,0,0,0,0,511,0,No
5,13,11,0,1,7,0,0,0,0,0,0,0,699,0,No
9,9,9,0,0,5,0,0,0,0,0,0,0,514,0,No
14,38,152,0,2,7,0,0,0,0,0,0,0,992,9,No
2,2,2,0,0,4,0,0,0,0,0,0,0,989,0,No
4,9,31,24,0,6,18,18,12,12,7,26,39,1004,0,No
4,6,7,0,0,4,0,0,0,0,0,0,0,1016,0,No
3,2,3,0,0,5,0,0,0,0,0,0,0,521,0,No
3,15,29,0,0,5,0,0,0,0,0,0,0,580,0,Yes
7,11,23,0,0,5,0,0,0,0,0,0,0,419,1,No
13,23,55,6,1,6,3,3,0,0,1,8,15,1002,0,Yes
5,22,49,0,0,6,0,0,0,0,0,0,0,1014,5,No
4,10,9,7,0,4,0,0,-7,0,7,26,39,1016,0,No
7,25,50,0,0,8,0,0,0,0,0,0,0,902,1,Yes
8,0,10,0,0,4,0,0,0,0,0,0,0,1031,0,No
12,32,61,0,1,10,0,0,0,0,0,0,0,1014,5,No
6,8,10,0,0,6,0,0,0,0,0,0,0,511,0,No
4,2,4,0,0,5,0,0,0,0,0,0,0,699,0,No
3,0,18,0,0,2,0,0,0,0,0,0,0,76,1,No
9,12,36,0,1,5,0,0,0,0,0,0,0,76,1,No
5,0,5,0,0,4,0,0,0,0,0,0,0,1000,1,No
2,2,4,0,0,4,0,0,0,0,0,0,0,213,0,No
11,8,18,12,1,7,9,9,6,6,1,8,15,840,2,No
1,1,3,47,0,1,47,47,47,47,1,8,15,2,0,No
3,7,11,0,1,4,0,0,0,0,0,0,0,840,0,No
10,8,10,4,1,4,2,2,0,0,1,7,13,76,0,No
13,9,14,0,0,5,0,0,0,0,0,0,0,75,0,Yes
1,0,1,0,0,6,0,0,0,0,0,0,0,1064,0,No
32,0,32,0,0,3,0,0,0,0,0,0,0,76,0,No
2,4,2,0,0,5,0,0,0,0,0,0,0,1064,0,No
4,6,16,0,0,3,0,0,0,0,0,0,0,91,2,No
6,4,6,0,0,2,0,0,0,0,0,0,0,70,0,Yes
8,10,22,0,1,4,0,0,0,0,0,0,0,71,0,Yes
14,9,15,0,0,3,0,0,0,0,0,0,0,70,0,Yes
11,10,11,0,0,5,0,0,0,0,0,0,0,75,0,No
14,7,14,0,0,2,0,0,0,0,0,0,0,69,0,Yes
6,11,21,0,0,4,0,0,0,0,0,0,0,72,0,No
16,17,24,0,0,5,0,0,0,0,0,0,0,65,0,Yes
7,5,10,0,0,2,0,0,0,0,0,0,0,70,0,Yes
26,10,26,0,1,4,0,0,0,0,0,0,0,66,0,Yes
5,4,5,0,1,6,0,0,0,0,0,0,0,1064,0,No
4,5,10,0,0,1,0,0,0,0,0,0,0,63,1,No
6,2,6,0,0,7,0,0,0,0,0,0,0,500,3,No
6,2,6,0,0,7,0,0,0,0,0,0,0,500,6,No
1,1,1,0,1,6,0,0,0,0,0,0,0,1025,0,No
15,3,20,0,0,6,0,0,0,0,0,0,0,517,0,No
7,22,27,0,1,4,0,0,0,0,0,0,0,101,0,No
6,23,65,4,1,6,2,2,0,0,1,1,1,163,1,No
27,51,131,0,5,9,0,0,0,0,0,0,0,625,15,Yes
3,0,3,0,0,3,0,0,0,0,0,0,0,1064,0,No
33,48,142,0,1,5,0,0,0,0,0,0,0,992,23,Yes
10,1,41,205,0,7,163,159,121,122,8,30,44,559,8,No
5,4,57,415,3,7,104,104,-207,0,1,7,13,448,6,No
3,0,38,197,0,1,197,197,197,197,1,7,13,1,9,No
13,1,16,0,2,1,0,0,0,0,0,0,0,35,0,No
8,1,18,0,0,5,0,0,0,0,0,0,0,763,1,No
4,0,8,0,0,2,0,0,0,0,0,0,0,99,4,No
0,0,0,0,0,5,0,0,0,0,0,0,0,1025,0,No
7,5,37,0,1,4,0,0,0,0,0,0,0,722,11,No
9,26,97,7,2,4,4,4,1,1,1,7,13,399,8,No
4,1,16,3,1,4,2,2,1,1,1,8,15,213,0,No
4,10,20,0,0,4,0,0,0,0,0,0,0,625,0,No
1,0,5,61,0,1,61,61,61,61,1,4,5,8,0,Yes
5,1,15,0,1,2,0,0,0,0,0,0,0,50,0,No
6,1,6,0,1,2,0,0,0,0,0,0,0,50,0,No
5,0,5,0,0,4,0,0,0,0,0,0,0,1064,0,No
2,1,4,0,0,4,0,0,0,0,0,0,0,496,0,No
14,0,18,0,1,5,0,0,0,0,0,0,0,448,0,No
2,0,6,0,0,4,0,0,0,0,0,0,0,448,1,No
3,2,4,19,1,5,4,4,-11,0,1,8,15,680,3,No
8,3,8,0,1,4,0,0,0,0,0,0,0,142,0,No
0,1,0,0,1,5,0,0,0,0,0,0,0,625,0,No
3,0,3,0,1,6,0,0,0,0,0,0,0,1025,0,No
9,1,9,0,1,4,0,0,0,0,0,0,0,514,0,No
1,8,3,0,1,4,0,0,0,0,0,0,0,80,2,No
0,0,0,0,0,3,0,0,0,0,0,0,0,1025,0,No
5,9,5,0,0,4,0,0,0,0,0,0,0,142,0,No
11,11,11,0,0,3,0,0,0,0,0,0,0,142,0,No
4,7,4,0,0,3,0,0,0,0,0,0,0,142,0,No
13,9,13,0,1,8,0,0,0,0,0,0,0,532,0,No
15,11,19,0,4,7,0,0,0,0,0,0,0,549,0,No
10,7,10,0,1,7,0,0,0,0,0,0,0,549,1,No
26,15,82,0,3,7,0,0,0,0,0,0,0,538,15,Yes
3,1,5,0,1,7,0,0,0,0,0,0,0,538,3,No
1,1,1,0,0,3,0,0,0,0,0,0,0,625,0,No
8,4,12,0,0,5,0,0,0,0,0,0,0,526,1,No
17,2,26,0,0,5,0,0,0,0,0,0,0,526,1,No
1,0,1,0,0,3,0,0,0,0,0,0,0,625,0,No
4,0,4,0,0,3,0,0,0,0,0,0,0,625,0,No
11,4,14,0,0,5,0,0,0,0,0,0,0,526,0,No
21,7,39,0,0,5,0,0,0,0,0,0,0,526,1,Yes
2,3,2,0,0,3,0,0,0,0,0,0,0,538,0,No
1,1,1,0,1,4,0,0,0,0,0,0,0,625,0,No
1,3,1,0,0,5,0,0,0,0,0,0,0,538,0,No
1,2,2,0,1,4,0,0,0,0,0,0,0,538,0,No
1,2,1,0,0,3,0,0,0,0,0,0,0,538,0,No
1,0,1,0,0,3,0,0,0,0,0,0,0,625,1,No
1,0,1,0,0,3,0,0,0,0,0,0,0,625,1,No
1,4,1,0,0,5,0,0,0,0,0,0,0,538,0,No
2,0,6,0,0,3,0,0,0,0,0,0,0,492,2,No
6,0,18,0,0,3,0,0,0,0,0,0,0,492,1,Yes
2,0,9,0,0,3,0,0,0,0,0,0,0,492,2,No
5,0,17,0,0,3,0,0,0,0,0,0,0,492,1,No
4,0,5,0,0,1,0,0,0,0,0,0,0,85,1,No
0,1,0,0,0,3,0,0,0,0,0,0,0,638,0,No
0,0,0,0,0,3,0,0,0,0,0,0,0,638,0,No
3,0,3,0,0,3,0,0,0,0,0,0,0,1077,0,No
0,0,0,0,0,4,0,0,0,0,0,0,0,638,1,No
1,0,2,0,0,4,0,0,0,0,0,0,0,1077,0,No
2,0,2,0,0,4,0,0,0,0,0,0,0,453,0,No
35,1,42,0,0,4,0,0,0,0,0,0,0,993,0,No
11,1,12,0,0,3,0,0,0,0,0,0,0,993,0,No
11,0,12,0,0,4,0,0,0,0,0,0,0,1077,2,No
2,1,2,0,0,3,0,0,0,0,0,0,0,1077,2,No
19,0,28,0,1,3,0,0,0,0,0,0,0,1013,0,No
13,0,17,0,0,4,0,0,0,0,0,0,0,993,0,No
2,1,2,0,0,3,0,0,0,0,0,0,0,638,0,No
1,0,1,0,0,3,0,0,0,0,0,0,0,432,0,No
12,1,14,0,0,1,0,0,0,0,0,0,0,407,0,No
10,3,10,0,0,3,0,0,0,0,0,0,0,432,0,No
7,1,11,0,0,3,0,0,0,0,0,0,0,924,0,No
5,1,6,0,0,3,0,0,0,0,0,0,0,1077,1,No
25,1,52,0,0,3,0,0,0,0,0,0,0,924,1,No
3,1,3,0,0,3,0,0,0,0,0,0,0,1077,0,No
0,0,0,0,0,3,0,0,0,0,0,0,0,1038,1,No
16,0,20,0,0,4,0,0,0,0,0,0,0,1044,0,No
10,1,14,0,0,3,0,0,0,0,0,0,0,915,0,No
2,2,2,0,0,3,0,0,0,0,0,0,0,1077,0,No
8,1,13,0,0,4,0,0,0,0,0,0,0,1077,2,No
4,1,4,0,0,3,0,0,0,0,0,0,0,1077,0,No
12,2,12,0,0,3,0,0,0,0,0,0,0,1015,0,No
19,3,25,0,0,4,0,0,0,0,0,0,0,1017,0,No
5,1,7,0,0,4,0,0,0,0,0,0,0,453,0,No
4,1,4,0,0,3,0,0,0,0,0,0,0,1034,0,No
4,2,4,0,0,3,0,0,0,0,0,0,0,1077,0,No
8,0,8,0,0,4,0,0,0,0,0,0,0,1077,1,No
24,4,27,0,0,4,0,0,0,0,0,0,0,534,0,No
16,1,17,0,1,3,0,0,0,0,0,0,0,527,0,No
2,2,2,0,0,3,0,0,0,0,0,0,0,1077,0,No
5,2,5,0,0,3,0,0,0,0,0,0,0,1077,0,No
8,2,8,0,0,4,0,0,0,0,0,0,0,429,0,No
14,2,14,0,0,3,0,0,0,0,0,0,0,915,0,No
3,1,3,0,0,3,0,0,0,0,0,0,0,638,0,No
24,2,32,0,0,3,0,0,0,0,0,0,0,432,0,No
36,4,36,0,0,3,0,0,0,0,0,0,0,1013,0,No
25,0,31,0,0,3,0,0,0,0,0,0,0,1006,0,No
8,0,12,0,0,3,0,0,0,0,0,0,0,1077,0,No
14,2,14,0,0,3,0,0,0,0,0,0,0,1022,0,No
20,2,21,0,0,4,0,0,0,0,0,0,0,1077,0,No
2,2,2,0,0,3,0,0,0,0,0,0,0,1077,0,No
16,0,16,0,0,3,0,0,0,0,0,0,0,638,0,No
2,0,2,0,0,3,0,0,0,0,0,0,0,915,0,No
12,1,16,0,0,3,0,0,0,0,0,0,0,915,0,No
10,3,13,0,0,3,0,0,0,0,0,0,0,524,0,No
29,0,39,0,0,4,0,0,0,0,0,0,0,1044,1,No
2,1,2,0,0,3,0,0,0,0,0,0,0,1077,0,No
4,1,4,0,0,3,0,0,0,0,0,0,0,638,0,No
20,2,21,0,0,3,0,0,0,0,0,0,0,540,0,No
20,1,26,0,0,4,0,0,0,0,0,0,0,540,1,No
10,11,52,0,2,5,0,0,0,0,0,0,0,520,0,No
2,0,4,0,0,3,0,0,0,0,0,0,0,509,3,No
7,1,13,0,0,3,0,0,0,0,0,0,0,1022,0,No
1,1,10,0,0,3,0,0,0,0,0,0,0,1022,2,No
8,1,8,0,0,3,0,0,0,0,0,0,0,1022,0,No
0,1,0,0,0,3,0,0,0,0,0,0,0,1038,2,No
20,1,24,0,0,3,0,0,0,0,0,0,0,1038,0,No
0,0,0,0,0,3,0,0,0,0,0,0,0,1038,0,No
2,0,2,0,0,3,0,0,0,0,0,0,0,1077,2,No
5,3,9,0,0,1,0,0,0,0,0,0,0,391,0,No
1,0,1,0,0,3,0,0,0,0,0,0,0,1038,1,No
0,0,0,0,0,3,0,0,0,0,0,0,0,1038,0,No
15,1,17,0,0,4,0,0,0,0,0,0,0,1077,1,No
7,1,8,0,0,3,0,0,0,0,0,0,0,1077,1,No
1,0,1,0,0,3,0,0,0,0,0,0,0,1038,0,No
0,0,0,0,0,3,0,0,0,0,0,0,0,1038,0,No
2,0,3,0,0,1,0,0,0,0,0,0,0,364,1,No
4,0,16,0,0,6,0,0,0,0,0,0,0,1038,4,No
48,1,52,0,0,4,0,0,0,0,0,0,0,607,0,No
1,0,1,0,0,3,0,0,0,0,0,0,0,1038,0,No
0,0,0,0,0,3,0,0,0,0,0,0,0,1038,0,No
0,0,0,0,0,3,0,0,0,0,0,0,0,1038,0,No
1,0,2,0,0,3,0,0,0,0,0,0,0,1038,0,No
0,0,0,0,0,3,0,0,0,0,0,0,0,1038,0,No
0,0,0,0,0,3,0,0,0,0,0,0,0,1038,0,No
2,0,4,0,0,3,0,0,0,0,0,0,0,1077,3,No
4,1,6,0,0,4,0,0,0,0,0,0,0,1038,0,No
3,0,6,0,0,3,0,0,0,0,0,0,0,1022,1,No
2,0,9,0,0,3,0,0,0,0,0,0,0,440,0,No
1,0,1,0,0,3,0,0,0,0,0,0,0,1038,0,No
0,0,0,0,0,3,0,0,0,0,0,0,0,1038,0,No
0,0,0,0,0,3,0,0,0,0,0,0,0,638,0,No
0,0,0,0,0,3,0,0,0,0,0,0,0,638,0,No
0,0,0,0,0,3,0,0,0,0,0,0,0,1038,0,No
6,12,16,0,0,4,0,0,0,0,0,0,0,1038,0,No
1,1,8,0,0,3,0,0,0,0,0,0,0,901,1,No
11,0,12,4,0,5,2,1,0,0,2,7,56,1038,0,No
0,0,0,0,0,3,0,0,0,0,0,0,0,1038,0,No
3,1,4,0,0,3,0,0,0,0,0,0,0,638,2,No
7,2,16,0,0,2,0,0,0,0,0,0,0,419,0,No
2,0,2,0,0,3,0,0,0,0,0,0,0,638,0,No
10,0,21,0,0,4,0,0,0,0,0,0,0,792,3,No
6,2,11,0,0,3,0,0,0,0,0,0,0,797,1,No
1,7,3,0,0,3,0,0,0,0,0,0,0,707,1,No
13,2,13,0,0,3,0,0,0,0,0,0,0,929,2,No
2,0,3,0,0,3,0,0,0,0,0,0,0,1077,0,No
7,0,12,0,0,3,0,0,0,0,0,0,0,637,1,No
2,0,7,0,1,3,0,0,0,0,0,0,0,757,0,No
2,3,12,0,2,4,0,0,0,0,0,0,0,755,2,No
6,0,6,0,0,3,0,0,0,0,0,0,0,1077,2,No
6,8,35,0,0,2,0,0,0,0,0,0,0,420,2,No
4,3,8,0,1,3,0,0,0,0,0,0,0,530,0,No
2,0,8,0,0,4,0,0,0,0,0,0,0,866,0,No
8,2,28,0,0,1,0,0,0,0,0,0,0,419,1,No
2,7,7,0,0,4,0,0,0,0,0,0,0,637,1,No
2,3,2,0,0,3,0,0,0,0,0,0,0,707,1,No
8,11,27,0,0,3,0,0,0,0,0,0,0,537,2,No
1,1,1,0,0,3,0,0,0,0,0,0,0,1038,0,No
11,7,17,0,0,4,0,0,0,0,0,0,0,1038,2,No
36,19,54,0,0,5,0,0,0,0,0,0,0,1038,16,No
2,5,5,0,0,4,0,0,0,0,0,0,0,932,3,No
15,14,43,0,1,5,0,0,0,0,0,0,0,1013,5,No
3,6,11,0,0,4,0,0,0,0,0,0,0,1013,1,No
10,3,15,0,2,3,0,0,0,0,0,0,0,986,1,No
2,7,4,0,1,3,0,0,0,0,0,0,0,432,0,No
0,0,0,0,0,3,0,0,0,0,0,0,0,1038,0,No
0,0,0,0,0,3,0,0,0,0,0,0,0,638,0,No
0,0,0,0,0,3,0,0,0,0,0,0,0,1038,0,No
11,5,15,0,0,5,0,0,0,0,0,0,0,1037,10,No
0,2,0,0,0,4,0,0,0,0,0,0,0,1036,1,No
2,5,2,0,0,4,0,0,0,0,0,0,0,986,1,No
6,12,16,0,1,5,0,0,0,0,0,0,0,527,3,No
0,3,0,0,0,4,0,0,0,0,0,0,0,527,0,No
5,14,25,0,0,5,0,0,0,0,0,0,0,537,5,No
0,2,0,0,0,3,0,0,0,0,0,0,0,707,0,No
3,2,3,0,0,1,0,0,0,0,0,0,0,419,0,No
35,17,64,0,0,4,0,0,0,0,0,0,0,419,5,No
10,17,69,0,0,2,0,0,0,0,0,0,0,407,4,No
24,15,36,0,0,4,0,0,0,0,0,0,0,1038,5,Yes
3,8,9,0,4,5,0,0,0,0,0,0,0,1007,2,Yes
28,11,34,0,0,5,0,0,0,0,0,0,0,1038,13,Yes
2,6,5,0,1,5,0,0,0,0,0,0,0,986,1,No
4,2,6,0,0,5,0,0,0,0,0,0,0,1038,3,No
1,2,1,0,0,4,0,0,0,0,0,0,0,637,0,No
23,15,39,0,0,4,0,0,0,0,0,0,0,1031,40,No
9,9,37,0,0,6,0,0,0,0,0,0,0,1013,6,No
4,5,7,0,0,4,0,0,0,0,0,0,0,446,2,No
2,6,3,0,0,3,0,0,0,0,0,0,0,637,0,No
9,13,11,0,0,4,0,0,0,0,0,0,0,902,2,No
11,9,16,0,0,5,0,0,0,0,0,0,0,1038,0,Yes
24,14,37,0,0,3,0,0,0,0,0,0,0,537,8,No
8,8,16,0,1,5,0,0,0,0,0,0,0,986,3,No
2,6,11,0,1,3,0,0,0,0,0,0,0,432,3,No
2,3,2,0,0,3,0,0,0,0,0,0,0,707,0,No
7,7,11,0,1,5,0,0,0,0,0,0,0,1038,3,No
2,1,2,0,0,3,0,0,0,0,0,0,0,707,0,No
3,6,11,0,0,3,0,0,0,0,0,0,0,707,1,No
0,2,0,0,0,4,0,0,0,0,0,0,0,1038,2,No
0,3,0,0,0,3,0,0,0,0,0,0,0,432,0,No
8,17,38,0,0,5,0,0,0,0,0,0,0,622,3,No
8,7,12,0,0,4,0,0,0,0,0,0,0,705,0,No
1,0,1,0,0,3,0,0,0,0,0,0,0,1038,0,No
8,12,14,0,0,5,0,0,0,0,0,0,0,1038,6,No
15,16,23,0,0,5,0,0,0,0,0,0,0,588,4,No
10,13,22,0,1,5,0,0,0,0,0,0,0,594,1,No
8,14,14,0,0,5,0,0,0,0,0,0,0,1038,7,No
6,13,27,0,1,5,0,0,0,0,0,0,0,432,2,No
7,10,11,0,0,4,0,0,0,0,0,0,0,432,1,No
15,14,59,0,3,6,0,0,0,0,0,0,0,432,0,Yes
5,5,15,0,0,4,0,0,0,0,0,0,0,546,1,No
1,4,2,0,0,5,0,0,0,0,0,0,0,622,2,No
25,21,47,0,3,5,0,0,0,0,0,0,0,530,4,No
1,5,1,0,0,5,0,0,0,0,0,0,0,523,1,No
6,6,11,0,0,4,0,0,0,0,0,0,0,546,1,No
2,4,5,0,0,4,0,0,0,0,0,0,0,523,5,No
1,5,1,0,0,4,0,0,0,0,0,0,0,523,0,No
9,8,13,0,0,3,0,0,0,0,0,0,0,622,2,No
10,14,17,0,0,5,0,0,0,0,0,0,0,1038,6,No
2,5,7,0,0,3,0,0,0,0,0,0,0,432,3,No
12,15,19,0,0,5,0,0,0,0,0,0,0,1038,6,No
1,5,2,0,0,3,0,0,0,0,0,0,0,534,0,No
9,7,29,0,0,2,0,0,0,0,0,0,0,420,3,No
26,15,67,68,1,4,29,29,-10,0,1,1,1,1038,6,No
9,9,15,0,0,3,0,0,0,0,0,0,0,705,0,No
0,0,0,0,0,4,0,0,0,0,0,0,0,1077,1,No
3,3,3,0,1,4,0,0,0,0,0,0,0,537,0,No
5,2,5,0,0,5,0,0,0,0,0,0,0,986,0,No
11,6,21,0,1,5,0,0,0,0,0,0,0,1013,1,No
1,2,2,0,0,4,0,0,0,0,0,0,0,834,0,No
3,1,3,0,0,3,0,0,0,0,0,0,0,1038,2,No
0,0,0,0,0,3,0,0,0,0,0,0,0,1038,1,No
7,6,9,0,0,5,0,0,0,0,0,0,0,986,0,No
7,3,7,0,0,4,0,0,0,0,0,0,0,527,0,No
5,6,33,0,0,5,0,0,0,0,0,0,0,594,0,Yes
10,4,11,0,0,3,0,0,0,0,0,0,0,419,0,Yes
5,3,7,0,0,5,0,0,0,0,0,0,0,1007,0,No
5,4,7,0,0,5,0,0,0,0,0,0,0,1007,0,Yes
18,6,30,0,1,5,0,0,0,0,0,0,0,1077,0,No
16,8,23,0,0,5,0,0,0,0,0,0,0,902,0,Yes
5,4,5,0,0,5,0,0,0,0,0,0,0,520,0,No
15,7,24,0,2,5,0,0,0,0,0,0,0,1028,0,Yes
2,3,2,0,0,4,0,0,0,0,0,0,0,834,0,No
4,0,4,0,0,1,0,0,0,0,0,0,0,419,0,No
2,1,3,0,0,1,0,0,0,0,0,0,0,61,0,No
2,1,3,0,0,3,0,0,0,0,0,0,0,757,0,No
2,0,2,0,0,3,0,0,0,0,0,0,0,757,0,No
1,1,2,0,0,3,0,0,0,0,0,0,0,527,0,No
1,1,2,0,0,3,0,0,0,0,0,0,0,527,0,No
1,1,10,0,1,3,0,0,0,0,0,0,0,524,1,No
1,0,1,0,0,3,0,0,0,0,0,0,0,1038,0,No
1,0,1,0,0,3,0,0,0,0,0,0,0,1077,1,No
14,3,33,0,0,3,0,0,0,0,0,0,0,446,0,No
5,0,16,0,0,4,0,0,0,0,0,0,0,986,1,No
3,0,3,0,0,3,0,0,0,0,0,0,0,796,0,No
5,0,5,0,1,5,0,0,0,0,0,0,0,986,1,No
1,0,1,0,0,3,0,0,0,0,0,0,0,986,0,No
2,1,2,0,1,4,0,0,0,0,0,0,0,594,0,No
2,0,3,0,0,3,0,0,0,0,0,0,0,986,0,No
5,0,9,0,2,5,0,0,0,0,0,0,0,986,2,No
1,0,1,0,0,3,0,0,0,0,0,0,0,1038,0,No
6,1,32,0,0,5,0,0,0,0,0,0,0,594,1,No
4,0,5,0,0,5,0,0,0,0,0,0,0,594,3,No
10,1,24,0,0,5,0,0,0,0,0,0,0,594,6,No
19,0,35,0,0,3,0,0,0,0,0,0,0,594,1,No
0,0,0,0,0,3,0,0,0,0,0,0,0,1038,0,No
8,0,14,0,0,4,0,0,0,0,0,0,0,594,0,No
1,0,1,0,2,1,0,0,0,0,0,0,0,68,0,No
9,0,30,0,0,1,0,0,0,0,0,0,0,407,1,No
26,0,36,0,2,1,0,0,0,0,0,0,0,407,0,No
5,8,6,0,0,3,0,0,0,0,0,0,0,986,7,No
4,5,5,0,0,4,0,0,0,0,0,0,0,523,1,No
2,3,7,0,0,1,0,0,0,0,0,0,0,399,2,No
12,0,20,0,0,1,0,0,0,0,0,0,0,399,0,No
2,0,14,0,0,3,0,0,0,0,0,0,0,944,8,No
1,1,4,0,1,4,0,0,0,0,0,0,0,551,1,No
8,8,12,0,0,4,0,0,0,0,0,0,0,953,3,No
1,2,21,0,1,6,0,0,0,0,0,0,0,1034,7,No
2,6,19,0,0,1,0,0,0,0,0,0,0,385,3,No
14,13,34,0,4,4,0,0,0,0,0,0,0,630,6,No
1,4,9,0,0,4,0,0,0,0,0,0,0,440,0,Yes
5,2,9,0,1,3,0,0,0,0,0,0,0,693,2,No
1,0,1,0,1,3,0,0,0,0,0,0,0,1038,0,No
7,21,26,0,1,4,0,0,0,0,0,0,0,527,1,Yes
13,3,18,0,1,5,0,0,0,0,0,0,0,1031,0,No
2,0,2,0,0,3,0,0,0,0,0,0,0,1038,0,No
17,4,48,0,2,4,0,0,0,0,0,0,0,1066,7,No
25,0,42,0,2,4,0,0,0,0,0,0,0,1031,0,No
9,1,18,0,1,4,0,0,0,0,0,0,0,1077,1,No
6,3,12,0,0,4,0,0,0,0,0,0,0,1051,0,No
9,1,9,0,0,3,0,0,0,0,0,0,0,1034,1,No
8,0,13,0,1,4,0,0,0,0,0,0,0,432,0,No
22,4,33,0,0,4,0,0,0,0,0,0,0,1064,3,No
8,0,10,0,0,4,0,0,0,0,0,0,0,712,0,No
7,1,7,0,0,3,0,0,0,0,0,0,0,1034,1,No
0,1,0,0,0,4,0,0,0,0,0,0,0,1031,0,No
19,3,25,0,0,3,0,0,0,0,0,0,0,1042,1,No
4,1,4,0,0,3,0,0,0,0,0,0,0,1066,0,No
39,6,49,0,0,5,0,0,0,0,0,0,0,1022,1,No
23,5,31,0,0,4,0,0,0,0,0,0,0,534,0,No
16,1,17,0,0,4,0,0,0,0,0,0,0,527,0,No
0,1,0,0,0,3,0,0,0,0,0,0,0,1031,0,No
6,4,6,0,0,3,0,0,0,0,0,0,0,607,0,No
14,5,14,0,0,4,0,0,0,0,0,0,0,915,0,No
13,2,27,0,0,3,0,0,0,0,0,0,0,432,1,No
6,1,8,0,0,3,0,0,0,0,0,0,0,432,0,No
5,2,7,0,0,3,0,0,0,0,0,0,0,432,0,No
4,1,4,0,0,3,0,0,0,0,0,0,0,638,0,No
15,2,15,0,0,3,0,0,0,0,0,0,0,1022,0,No
0,1,0,0,0,3,0,0,0,0,0,0,0,1031,0,No
17,4,18,0,0,4,0,0,0,0,0,0,0,638,0,No
4,0,4,0,0,3,0,0,0,0,0,0,0,1077,0,No
6,2,6,0,0,3,0,0,0,0,0,0,0,1066,0,No
5,0,10,0,0,3,0,0,0,0,0,0,0,915,0,No
4,0,4,0,0,3,0,0,0,0,0,0,0,915,0,No
8,4,11,0,0,3,0,0,0,0,0,0,0,524,0,No
11,4,19,0,0,4,0,0,0,0,0,0,0,1031,0,No
5,3,7,0,0,4,0,0,0,0,0,0,0,873,0,No
3,2,4,0,0,4,0,0,0,0,0,0,0,1077,0,No
4,3,6,0,0,4,0,0,0,0,0,0,0,1031,0,No
0,1,0,0,0,3,0,0,0,0,0,0,0,1031,0,No
0,1,0,0,0,3,0,0,0,0,0,0,0,1031,0,No
5,3,7,0,0,5,0,0,0,0,0,0,0,1031,0,No
0,1,0,0,0,3,0,0,0,0,0,0,0,1031,0,No
24,7,30,0,0,5,0,0,0,0,0,0,0,1001,1,No
0,0,0,0,0,3,0,0,0,0,0,0,0,1038,0,No
11,4,19,0,0,4,0,0,0,0,0,0,0,1031,0,No
5,3,7,0,0,4,0,0,0,0,0,0,0,873,0,No
3,2,4,0,0,4,0,0,0,0,0,0,0,1077,0,No
4,3,6,0,0,4,0,0,0,0,0,0,0,1031,0,No
0,1,0,0,0,3,0,0,0,0,0,0,0,1031,0,No
0,1,0,0,0,3,0,0,0,0,0,0,0,1031,0,No
5,3,7,0,0,5,0,0,0,0,0,0,0,1031,0,No
0,1,0,0,0,3,0,0,0,0,0,0,0,1031,0,No
39,11,72,0,0,4,0,0,0,0,0,0,0,1031,0,No
53,9,98,0,4,5,0,0,0,0,0,0,0,1031,2,Yes
11,4,19,0,1,4,0,0,0,0,0,0,0,1031,0,No
5,3,7,3,0,4,3,3,3,3,1,2,3,873,0,No
3,2,4,0,0,4,0,0,0,0,0,0,0,1077,0,No
4,3,6,0,0,4,0,0,0,0,0,0,0,1031,0,No
0,2,0,0,0,3,0,0,0,0,0,0,0,1031,0,No
0,2,0,0,0,3,0,0,0,0,0,0,0,1031,0,No
5,3,8,0,0,5,0,0,0,0,0,0,0,1031,0,No
0,2,0,0,0,3,0,0,0,0,0,0,0,1031,0,No
5,2,5,0,0,3,0,0,0,0,0,0,0,1077,0,No
5,2,5,0,0,3,0,0,0,0,0,0,0,1077,0,No
5,2,5,0,0,3,0,0,0,0,0,0,0,1077,0,No
4,2,4,0,0,3,0,0,0,0,0,0,0,1077,0,No
4,1,4,0,0,3,0,0,0,0,0,0,0,1038,0,No
5,2,5,0,0,3,0,0,0,0,0,0,0,1077,0,No
5,4,5,0,0,3,0,0,0,0,0,0,0,1077,0,No
6,3,6,0,0,3,0,0,0,0,0,0,0,1077,0,No
5,3,5,0,0,3,0,0,0,0,0,0,0,1077,0,No
5,4,5,0,0,3,0,0,0,0,0,0,0,1077,0,No
1,0,1,0,0,3,0,0,0,0,0,0,0,1038,0,No
4,2,4,0,0,3,0,0,0,0,0,0,0,638,0,No
8,5,8,0,0,3,0,0,0,0,0,0,0,1038,0,No
7,2,7,0,0,3,0,0,0,0,0,0,0,1077,0,Yes
7,3,7,0,0,3,0,0,0,0,0,0,0,1077,0,No
8,4,8,0,0,3,0,0,0,0,0,0,0,1077,0,No
12,5,12,0,0,3,0,0,0,0,0,0,0,1077,1,Yes
5,4,5,0,0,3,0,0,0,0,0,0,0,1077,0,No
12,5,12,0,0,3,0,0,0,0,0,0,0,1077,0,Yes
8,3,8,0,0,3,0,0,0,0,0,0,0,1077,0,No
13,5,13,0,0,3,0,0,0,0,0,0,0,1077,0,Yes
4,2,4,0,0,3,0,0,0,0,0,0,0,638,0,No
4,2,4,0,0,5,0,0,0,0,0,0,0,1077,0,No
5,2,5,0,0,3,0,0,0,0,0,0,0,1077,0,No
5,4,5,0,0,3,0,0,0,0,0,0,0,1077,0,No
8,2,12,0,0,3,0,0,0,0,0,0,0,1077,0,Yes
5,2,7,0,0,3,0,0,0,0,0,0,0,1066,0,No
5,2,7,0,0,3,0,0,0,0,0,0,0,1066,0,No
5,3,9,0,0,3,0,0,0,0,0,0,0,1066,1,No
4,5,9,0,0,3,0,0,0,0,0,0,0,1066,0,No
5,2,7,0,0,3,0,0,0,0,0,0,0,1066,0,No
5,6,8,0,0,3,0,0,0,0,0,0,0,1066,0,No
6,5,9,0,0,3,0,0,0,0,0,0,0,1066,0,No
5,4,8,0,0,3,0,0,0,0,0,0,0,440,0,No
5,6,8,0,0,3,0,0,0,0,0,0,0,1001,0,No
4,3,4,0,0,3,0,0,0,0,0,0,0,534,0,No
8,6,14,0,0,3,0,0,0,0,0,0,0,607,0,No
7,3,10,0,0,3,0,0,0,0,0,0,0,432,0,Yes
8,4,12,0,0,3,0,0,0,0,0,0,0,432,0,No
8,12,19,0,0,3,0,0,0,0,0,0,0,1022,1,No
14,8,26,0,0,3,0,0,0,0,0,0,0,1066,1,Yes
5,6,8,0,0,3,0,0,0,0,0,0,0,1066,0,No
13,8,23,0,0,4,0,0,0,0,0,0,0,1066,0,Yes
9,7,14,0,0,3,0,0,0,0,0,0,0,1066,0,No
17,16,81,33,0,6,15,15,-3,0,1,2,3,821,5,Yes
4,3,4,0,0,3,0,0,0,0,0,0,0,534,0,No
15,13,88,31,0,6,15,15,-1,0,1,2,3,1077,13,No
5,2,7,0,0,3,0,0,0,0,0,0,0,1066,0,No
5,6,8,0,0,3,0,0,0,0,0,0,0,1066,0,No
2,0,67,0,0,1,0,0,0,0,0,0,0,278,7,No
2,2,2,0,1,3,0,0,0,0,0,0,0,1048,0,No
1,2,2,0,0,3,0,0,0,0,0,0,0,1077,0,No
1,3,6,0,0,4,0,0,0,0,0,0,0,1077,0,No
1,2,2,0,0,3,0,0,0,0,0,0,0,1048,0,No
0,1,0,0,0,3,0,0,0,0,0,0,0,1077,0,No
0,0,0,0,0,3,0,0,0,0,0,0,0,1077,0,No
1,1,1,0,0,3,0,0,0,0,0,0,0,1048,0,No
0,0,0,0,0,3,0,0,0,0,0,0,0,1077,1,No
0,0,0,0,0,3,0,0,0,0,0,0,0,873,0,No
2,2,8,0,0,3,0,0,0,0,0,0,0,873,2,No
0,0,0,0,0,3,0,0,0,0,0,0,0,873,0,No
2,4,11,0,0,3,0,0,0,0,0,0,0,873,3,No
0,0,0,0,0,3,0,0,0,0,0,0,0,873,0,No
2,2,5,0,0,3,0,0,0,0,0,0,0,873,2,No
1,0,2,0,0,3,0,0,0,0,0,0,0,873,0,No
0,0,0,0,0,3,0,0,0,0,0,0,0,873,0,No
2,3,6,0,0,3,0,0,0,0,0,0,0,873,2,No
4,1,7,0,0,3,0,0,0,0,0,0,0,873,0,No
0,0,0,0,0,3,0,0,0,0,0,0,0,638,0,No
2,2,7,0,0,3,0,0,0,0,0,0,0,534,1,No
0,0,0,0,0,3,0,0,0,0,0,0,0,873,0,No
2,9,21,0,0,4,0,0,0,0,0,0,0,607,3,No
0,0,0,0,0,3,0,0,0,0,0,0,0,638,0,No
2,4,10,0,1,3,0,0,0,0,0,0,0,873,2,No
0,0,0,0,0,3,0,0,0,0,0,0,0,638,0,No
2,3,6,0,0,3,0,0,0,0,0,0,0,638,2,No
0,0,0,0,0,3,0,0,0,0,0,0,0,638,0,No
2,3,8,0,0,6,0,0,0,0,0,0,0,638,2,No
0,0,0,0,0,3,0,0,0,0,0,0,0,873,0,No
0,0,0,0,0,3,0,0,0,0,0,0,0,873,0,No
2,4,12,0,0,4,0,0,0,0,0,0,0,586,1,No
2,3,9,0,0,3,0,0,0,0,0,0,0,873,2,No
0,0,0,0,0,3,0,0,0,0,0,0,0,638,0,No
2,3,9,0,0,5,0,0,0,0,0,0,0,632,1,No
0,0,0,0,0,3,0,0,0,0,0,0,0,873,0,No
4,13,24,0,0,5,0,0,0,0,0,0,0,544,1,No
0,0,0,0,0,3,0,0,0,0,0,0,0,873,0,No
2,4,8,0,0,3,0,0,0,0,0,0,0,544,1,No
1,9,25,0,2,4,0,0,0,0,0,0,0,537,1,No
0,0,0,0,0,3,0,0,0,0,0,0,0,1038,0,No
12,2,58,0,0,3,0,0,0,0,0,0,0,594,0,No
0,0,0,0,0,3,0,0,0,0,0,0,0,1038,0,No
0,0,0,0,0,3,0,0,0,0,0,0,0,1038,0,No
1,2,1,0,0,3,0,0,0,0,0,0,0,607,1,No
1,7,18,0,0,5,0,0,0,0,0,0,0,607,1,No
10,0,20,0,0,1,0,0,0,0,0,0,0,85,2,No
19,11,94,0,0,6,0,0,0,0,0,0,0,950,40,No
12,1,32,0,1,4,0,0,0,0,0,0,0,992,0,No
1,0,1,0,0,3,0,0,0,0,0,0,0,1077,0,No
1,1,1,0,0,3,0,0,0,0,0,0,0,429,1,No
19,31,111,0,7,6,0,0,0,0,0,0,0,1015,15,No
0,0,0,0,0,4,0,0,0,0,0,0,0,1038,1,No
0,0,0,0,0,3,0,0,0,0,0,0,0,1038,0,No
5,3,6,0,0,3,0,0,0,0,0,0,0,638,0,No
0,0,0,0,0,3,0,0,0,0,0,0,0,638,0,No
2,1,2,0,0,4,0,0,0,0,0,0,0,432,0,No
0,1,0,0,0,3,0,0,0,0,0,0,0,638,0,No
1,1,10,0,0,1,0,0,0,0,0,0,0,407,0,No
6,15,44,0,0,4,0,0,0,0,0,0,0,638,5,Yes
4,11,15,0,0,3,0,0,0,0,0,0,0,1077,6,No
2,7,3,0,0,3,0,0,0,0,0,0,0,856,0,No
8,12,15,0,0,5,0,0,0,0,0,0,0,1002,2,No
11,20,35,0,0,6,0,0,0,0,0,0,0,1017,5,No
5,9,9,0,0,4,0,0,0,0,0,0,0,1029,0,No
0,0,0,0,0,3,0,0,0,0,0,0,0,1038,0,No
10,13,21,0,0,4,0,0,0,0,0,0,0,799,4,No
5,8,9,0,0,4,0,0,0,0,0,0,0,534,3,No
13,16,22,0,0,4,0,0,0,0,0,0,0,594,4,Yes
13,19,38,0,1,5,0,0,0,0,0,0,0,432,7,Yes
8,21,20,0,0,5,0,0,0,0,0,0,0,1015,0,No
8,13,27,0,0,4,0,0,0,0,0,0,0,1006,0,Yes
5,9,9,0,0,4,0,0,0,0,0,0,0,1034,0,No
16,27,43,0,0,4,0,0,0,0,0,0,0,911,6,Yes
1,0,1,0,0,3,0,0,0,0,0,0,0,1077,0,No
30,25,62,0,3,5,0,0,0,0,0,0,0,1044,8,Yes
8,12,15,0,0,5,0,0,0,0,0,0,0,524,0,No
5,9,9,0,0,5,0,0,0,0,0,0,0,712,0,No
3,7,3,0,1,3,0,0,0,0,0,0,0,527,0,No
14,35,142,0,1,5,0,0,0,0,0,0,0,1005,8,No
2,2,2,0,0,3,0,0,0,0,0,0,0,1002,0,No
3,9,22,0,0,4,0,0,0,0,0,0,0,1017,0,No
4,7,7,0,0,3,0,0,0,0,0,0,0,1029,0,No
3,2,3,0,0,4,0,0,0,0,0,0,0,534,0,No
2,11,31,0,0,4,0,0,0,0,0,0,0,593,2,Yes
6,10,21,0,0,3,0,0,0,0,0,0,0,432,1,No
11,16,46,0,0,4,0,0,0,0,0,0,0,1015,2,Yes
3,16,30,0,1,3,0,0,0,0,0,0,0,1027,3,No
4,10,9,0,0,3,0,0,0,0,0,0,0,1029,0,No
7,24,45,0,1,5,0,0,0,0,0,0,0,915,2,Yes
8,0,10,0,0,3,0,0,0,0,0,0,0,1044,0,No
11,30,56,0,1,6,0,0,0,0,0,0,0,1027,5,No
6,7,10,0,0,4,0,0,0,0,0,0,0,524,0,No
4,4,4,0,0,4,0,0,0,0,0,0,0,712,2,No
4,4,7,0,0,3,0,0,0,0,0,0,0,630,1,No
6,3,6,0,0,4,0,0,0,0,0,0,0,513,3,No
4,10,27,0,2,5,0,0,0,0,0,0,0,527,1,No
2,13,11,0,0,3,0,0,0,0,0,0,0,432,1,No
0,0,0,0,0,3,0,0,0,0,0,0,0,638,1,No
2,2,5,0,0,3,0,0,0,0,0,0,0,638,2,No
3,5,12,0,0,4,0,0,0,0,0,0,0,506,1,No
14,39,117,0,2,5,0,0,0,0,0,0,0,638,9,No
6,3,6,0,0,4,0,0,0,0,0,0,0,513,6,No
13,2,18,0,0,3,0,0,0,0,0,0,0,530,1,No
0,0,0,0,0,3,0,0,0,0,0,0,0,1038,0,No
5,0,5,0,0,3,0,0,0,0,0,0,0,1013,1,No
8,7,15,0,2,4,0,0,0,0,0,0,0,853,2,No
3,6,9,0,0,3,0,0,0,0,0,0,0,853,0,No
2,0,2,0,0,3,0,0,0,0,0,0,0,1077,0,No
21,33,75,0,0,3,0,0,0,0,0,0,0,1005,17,Yes
3,3,18,0,0,5,0,0,0,0,0,0,0,572,0,No
12,20,82,0,6,4,0,0,0,0,0,0,0,411,5,No
7,1,17,0,1,4,0,0,0,0,0,0,0,776,1,No
8,3,93,0,0,6,0,0,0,0,0,0,0,461,16,No
6,7,33,0,0,3,0,0,0,0,0,0,0,735,7,No
21,19,76,0,2,3,0,0,0,0,0,0,0,412,5,No
4,10,20,0,0,3,0,0,0,0,0,0,0,638,0,No
6,1,16,0,0,1,0,0,0,0,0,0,0,63,1,No
4,1,14,0,0,1,0,0,0,0,0,0,0,63,1,No
5,0,5,0,0,1,0,0,0,0,0,0,0,63,0,No
14,0,18,0,0,4,0,0,0,0,0,0,0,461,0,No
2,0,6,0,0,4,0,0,0,0,0,0,0,461,1,No
13,7,13,0,2,4,0,0,0,0,0,0,0,545,0,No
25,12,86,0,4,4,0,0,0,0,0,0,0,551,13,No
15,8,19,0,3,5,0,0,0,0,0,0,0,562,0,No
18,8,18,0,1,4,0,0,0,0,0,0,0,562,1,No
0,0,0,0,0,3,0,0,0,0,0,0,0,638,0,No
9,1,9,0,1,3,0,0,0,0,0,0,0,527,0,No
2,3,2,0,0,3,0,0,0,0,0,0,0,551,0,No
1,1,1,0,0,4,0,0,0,0,0,0,0,638,0,No
1,3,1,0,0,4,0,0,0,0,0,0,0,551,0,No
1,2,2,0,1,4,0,0,0,0,0,0,0,551,0,No
1,2,1,0,0,3,0,0,0,0,0,0,0,551,0,No
1,0,1,0,0,3,0,0,0,0,0,0,0,638,1,No
1,0,1,0,0,3,0,0,0,0,0,0,0,638,1,No
1,1,1,0,0,3,0,0,0,0,0,0,0,638,0,No
10,4,14,0,0,4,0,0,0,0,0,0,0,539,1,No
16,2,25,0,0,4,0,0,0,0,0,0,0,539,1,No
1,0,1,0,0,3,0,0,0,0,0,0,0,638,0,No
4,0,4,0,0,3,0,0,0,0,0,0,0,638,0,No
13,4,16,0,0,4,0,0,0,0,0,0,0,539,0,No
20,7,35,0,0,4,0,0,0,0,0,0,0,539,1,No
1,4,1,0,0,4,0,0,0,0,0,0,0,551,0,No
0,0,0,0,0,3,0,0,0,0,0,0,0,1038,0,No
1,0,16,0,0,3,0,0,0,0,0,0,0,456,0,No
2,0,6,0,0,3,0,0,0,0,0,0,0,503,2,No
6,0,19,22,1,3,15,15,8,8,1,1,1,503,1,No
3,0,9,0,0,1,0,0,0,0,0,0,0,32,5,No
2,0,9,0,1,3,0,0,0,0,0,0,0,503,2,No
5,0,17,0,0,3,0,0,0,0,0,0,0,503,1,No
1,0,10,0,0,1,0,0,0,0,0,0,0,142,5,No
4,0,5,0,0,2,0,0,0,0,0,0,0,95,1,No
1,0,2,0,0,4,0,0,0,0,0,0,0,1088,0,No
2,0,2,0,0,4,0,0,0,0,0,0,0,464,0,No
3,4,16,0,1,3,0,0,0,0,0,0,0,96,4,No
8,6,9,0,2,2,0,0,0,0,0,0,0,115,0,No
13,8,17,30,0,3,22,22,14,14,4,13,15,115,0,No
2,3,2,0,0,4,0,0,0,0,0,0,0,1088,0,No
4,5,14,0,0,2,0,0,0,0,0,0,0,115,0,No
5,3,5,0,0,3,0,0,0,0,0,0,0,110,0,No
9,8,24,0,1,4,0,0,0,0,0,0,0,111,0,No
12,6,13,0,2,3,0,0,0,0,0,0,0,114,0,No
10,9,12,0,1,3,0,0,0,0,0,0,0,114,0,No
13,5,13,0,0,2,0,0,0,0,0,0,0,116,0,No
6,8,13,0,1,3,0,0,0,0,0,0,0,110,0,No
1,0,1,0,0,4,0,0,0,0,0,0,0,1088,0,No
4,2,8,0,1,5,0,0,0,0,0,0,0,1088,0,No
15,15,35,0,2,4,0,0,0,0,0,0,0,111,1,No
6,3,9,0,0,3,0,0,0,0,0,0,0,109,0,No
25,8,25,0,1,4,0,0,0,0,0,0,0,116,0,No
5,3,5,0,1,1,0,0,0,0,0,0,0,72,0,No
3,3,3,0,0,5,0,0,0,0,0,0,0,1088,0,No
3,0,3,0,0,4,0,0,0,0,0,0,0,1088,0,No
0,0,0,0,0,5,0,0,0,0,0,0,0,649,1,No
0,0,0,0,0,5,0,0,0,0,0,0,0,649,0,No
0,1,0,0,0,4,0,0,0,0,0,0,0,649,0,No
0,0,0,0,0,4,0,0,0,0,0,0,0,649,0,No
35,1,42,0,0,5,0,0,0,0,0,0,0,1004,0,No
11,1,12,0,0,4,0,0,0,0,0,0,0,1004,0,No
11,0,12,0,0,5,0,0,0,0,0,0,0,1088,2,No
2,1,2,0,0,4,0,0,0,0,0,0,0,1088,0,No
25,0,38,0,0,4,0,0,0,0,0,0,0,1024,0,No
15,1,26,0,0,5,0,0,0,0,0,0,0,1004,2,No
2,1,2,0,0,5,0,0,0,0,0,0,0,649,0,No
1,0,1,0,0,4,0,0,0,0,0,0,0,443,0,No
12,1,14,0,0,3,0,0,0,0,0,0,0,418,0,No
10,3,10,0,0,5,0,0,0,0,0,0,0,443,0,No
0,0,0,0,0,4,0,0,0,0,0,0,0,1049,1,No
7,1,11,0,0,4,0,0,0,0,0,0,0,935,0,No
3,1,3,0,0,4,0,0,0,0,0,0,0,1045,0,No
5,1,6,0,0,4,0,0,0,0,0,0,0,1088,1,No
29,1,51,0,0,4,0,0,0,0,0,0,0,935,1,No
3,1,3,0,0,4,0,0,0,0,0,0,0,1088,0,No
1,0,1,0,0,4,0,0,0,0,0,0,0,1049,0,No
8,3,8,0,1,3,0,0,0,0,0,0,0,115,0,No
13,7,13,18,1,3,15,15,12,12,4,13,15,115,0,No
2,1,2,0,0,4,0,0,0,0,0,0,0,1088,0,No
0,0,0,0,0,5,0,0,0,0,0,0,0,1049,0,No
4,2,4,0,0,2,0,0,0,0,0,0,0,115,1,No
5,1,5,0,0,3,0,0,0,0,0,0,0,110,1,No
7,3,7,0,1,3,0,0,0,0,0,0,0,111,0,Yes
12,3,12,0,1,3,0,0,0,0,0,0,0,114,0,No
2,0,2,0,0,5,0,0,0,0,0,0,0,1088,0,No
10,6,10,0,0,3,0,0,0,0,0,0,0,114,0,No
13,3,13,0,0,3,0,0,0,0,0,0,0,116,0,Yes
5,3,5,0,0,3,0,0,0,0,0,0,0,110,0,No
14,8,14,0,0,4,0,0,0,0,0,0,0,111,0,Yes
6,1,6,0,0,3,0,0,0,0,0,0,0,110,1,No
25,6,25,0,1,5,0,0,0,0,0,0,0,116,0,Yes
5,2,5,0,1,5,0,0,0,0,0,0,0,1088,0,No
3,2,3,0,0,3,0,0,0,0,0,0,0,115,0,No
20,0,29,0,0,6,0,0,0,0,0,0,0,1055,1,No
10,1,14,0,0,4,0,0,0,0,0,0,0,926,0,No
2,1,2,0,0,4,0,0,0,0,0,0,0,1088,0,No
2,2,2,0,0,4,0,0,0,0,0,0,0,1088,0,No
8,1,13,0,0,5,0,0,0,0,0,0,0,1088,2,No
6,1,8,0,0,2,0,0,0,0,0,0,0,47,0,No
9,1,16,0,0,1,0,0,0,0,0,0,0,47,1,No
4,1,4,0,0,4,0,0,0,0,0,0,0,1088,0,No
14,2,14,0,0,4,0,0,0,0,0,0,0,1026,0,No
3,1,3,137,0,4,72,72,7,7,4,13,15,1088,2,No
23,3,31,0,0,7,0,0,0,0,0,0,0,1028,2,No
5,1,7,0,1,5,0,0,0,0,0,0,0,464,0,No
3,1,3,0,0,5,0,0,0,0,0,0,0,1088,0,No
2,0,2,0,0,4,0,0,0,0,0,0,0,1045,0,No
3,1,3,0,0,1,0,0,0,0,0,0,0,116,0,No
3,1,3,0,0,4,0,0,0,0,0,0,0,1088,0,No
4,2,4,0,0,4,0,0,0,0,0,0,0,1088,0,No
3,1,3,0,0,4,0,0,0,0,0,0,0,1088,0,No
16,3,16,0,0,5,0,0,0,0,0,0,0,1033,0,No
11,2,27,0,1,4,0,0,0,0,0,0,0,168,2,No
12,0,12,0,0,5,0,0,0,0,0,0,0,1088,2,No
24,4,27,0,0,6,0,0,0,0,0,0,0,545,0,No
16,1,18,0,0,5,0,0,0,0,0,0,0,538,1,No
2,2,2,0,0,4,0,0,0,0,0,0,0,1088,0,No
6,2,6,0,0,4,0,0,0,0,0,0,0,1088,0,No
3,1,3,0,0,1,0,0,0,0,0,0,0,116,0,No
6,1,9,0,0,2,0,0,0,0,0,0,0,95,1,No
8,2,8,0,0,5,0,0,0,0,0,0,0,440,0,No
18,3,18,0,0,4,0,0,0,0,0,0,0,926,0,No
2,0,2,0,0,4,0,0,0,0,0,0,0,649,0,No
24,4,32,0,0,5,0,0,0,0,0,0,0,443,0,No
42,4,42,0,1,4,0,0,0,0,0,0,0,1024,0,No
30,0,37,0,0,5,0,0,0,0,0,0,0,1017,1,No
12,0,16,0,0,5,0,0,0,0,0,0,0,1088,0,No
18,1,19,0,0,6,0,0,0,0,0,0,0,1088,0,No
3,1,3,0,0,1,0,0,0,0,0,0,0,116,0,No
2,2,2,0,0,4,0,0,0,0,0,0,0,1088,0,No
18,0,18,0,0,4,0,0,0,0,0,0,0,649,0,No
2,0,2,0,0,4,0,0,0,0,0,0,0,926,0,No
12,1,16,0,0,6,0,0,0,0,0,0,0,926,0,No
1,0,1,0,0,5,0,0,0,0,0,0,0,1088,0,No
10,3,13,0,0,5,0,0,0,0,0,0,0,535,1,No
25,0,31,0,0,5,0,0,0,0,0,0,0,1055,1,No
3,1,3,0,0,4,0,0,0,0,0,0,0,1088,0,No
2,0,2,0,0,5,0,0,0,0,0,0,0,1088,0,No
4,1,4,0,0,4,0,0,0,0,0,0,0,649,0,No
20,2,21,0,0,4,0,0,0,0,0,0,0,551,0,No
20,1,27,0,0,6,0,0,0,0,0,0,0,551,2,No
0,1,0,0,0,4,0,0,0,0,0,0,0,1049,1,No
20,1,24,0,0,4,0,0,0,0,0,0,0,1049,0,No
1,0,1,0,0,4,0,0,0,0,0,0,0,1049,1,No
2,0,4,0,0,4,0,0,0,0,0,0,0,1088,3,No
2,0,2,1,0,5,1,1,1,1,4,13,15,1088,2,No
5,3,9,0,0,2,0,0,0,0,0,0,0,402,0,No
2,0,2,0,0,5,0,0,0,0,0,0,0,1049,2,No
1,0,1,0,0,5,0,0,0,0,0,0,0,1049,1,No
15,1,17,0,0,5,0,0,0,0,0,0,0,1088,1,No
7,1,7,0,0,4,0,0,0,0,0,0,0,1088,1,No
1,0,1,0,0,4,0,0,0,0,0,0,0,1049,0,No
1,0,1,0,0,4,0,0,0,0,0,0,0,1049,1,No
2,0,2,9,1,3,3,3,-3,0,2,3,19,375,1,No
5,0,17,0,1,7,0,0,0,0,0,0,0,1049,9,Yes
1,0,1,0,0,4,0,0,0,0,0,0,0,1049,1,No
0,0,0,0,1,1,0,0,0,0,0,0,0,69,0,No
48,1,52,0,0,5,0,0,0,0,0,0,0,618,0,No
2,0,2,0,0,4,0,0,0,0,0,0,0,1049,1,No
0,0,0,0,0,4,0,0,0,0,0,0,0,1049,0,No
2,0,3,0,0,4,0,0,0,0,0,0,0,1049,1,No
0,0,0,0,0,4,0,0,0,0,0,0,0,1049,0,No
1,0,1,0,0,4,0,0,0,0,0,0,0,1049,1,No
1,0,1,0,0,4,0,0,0,0,0,0,0,1049,1,No
2,4,2,0,1,4,0,0,0,0,0,0,0,649,1,No
10,2,11,0,0,7,0,0,0,0,0,0,0,1049,0,No
3,0,6,0,1,4,0,0,0,0,0,0,0,1033,1,No
2,0,9,0,0,4,0,0,0,0,0,0,0,451,0,No
1,0,1,0,0,4,0,0,0,0,0,0,0,1049,0,No
2,0,5,0,0,4,0,0,0,0,0,0,0,649,3,No
0,0,0,0,0,4,0,0,0,0,0,0,0,1049,0,No
1,0,1,0,0,4,0,0,0,0,0,0,0,649,1,No
0,0,0,0,0,4,0,0,0,0,0,0,0,649,0,No
0,0,0,0,0,4,0,0,0,0,0,0,0,1049,0,No
11,11,53,0,0,6,0,0,0,0,0,0,0,531,0,No
17,10,34,0,1,4,0,0,0,0,0,0,0,100,1,No
7,1,14,0,2,5,0,0,0,0,0,0,0,1033,0,No
1,1,11,0,2,4,0,0,0,0,0,0,0,1033,2,No
8,1,8,0,0,5,0,0,0,0,0,0,0,1033,0,No
8,13,18,0,0,6,0,0,0,0,0,0,0,1049,0,No
1,1,8,0,0,3,0,0,0,0,0,0,0,912,1,No
13,31,14,0,1,7,0,0,0,0,0,0,0,1049,0,Yes
4,4,10,0,1,6,0,0,0,0,0,0,0,541,2,Yes
3,0,3,0,0,2,0,0,0,0,0,0,0,250,0,No
0,0,0,0,0,3,0,0,0,0,0,0,0,1049,0,No
3,1,4,0,0,5,0,0,0,0,0,0,0,649,2,No
6,1,10,0,0,4,0,0,0,0,0,0,0,430,0,No
3,0,3,0,0,2,0,0,0,0,0,0,0,87,1,No
2,0,2,0,0,5,0,0,0,0,0,0,0,649,0,No
10,0,21,0,2,6,0,0,0,0,0,0,0,803,3,No
7,2,12,0,0,4,0,0,0,0,0,0,0,808,1,No
1,1,4,0,0,3,0,0,0,0,0,0,0,1088,1,No
1,6,3,0,1,4,0,0,0,0,0,0,0,718,0,No
13,2,13,0,0,5,0,0,0,0,0,0,0,940,2,No
2,0,3,0,0,3,0,0,0,0,0,0,0,1088,0,No
7,0,12,0,0,5,0,0,0,0,0,0,0,648,1,No
2,3,12,0,2,6,0,0,0,0,0,0,0,766,2,No
2,0,7,0,1,5,0,0,0,0,0,0,0,768,0,No
7,0,7,0,0,3,0,0,0,0,0,0,0,1088,0,No
8,6,33,0,0,3,0,0,0,0,0,0,0,431,3,No
2,0,8,0,0,6,0,0,0,0,0,0,0,877,0,No
8,2,28,0,0,3,0,0,0,0,0,0,0,430,1,No
2,0,4,0,0,1,0,0,0,0,0,0,0,87,0,No
4,1,4,0,0,3,0,0,0,0,0,0,0,1049,0,No
3,6,8,0,1,6,0,0,0,0,0,0,0,648,1,No
2,3,2,0,0,4,0,0,0,0,0,0,0,718,0,No
10,12,29,0,1,5,0,0,0,0,0,0,0,548,2,No
1,2,1,0,1,4,0,0,0,0,0,0,0,1049,0,No
9,5,16,0,0,7,0,0,0,0,0,0,0,1049,2,No
6,6,7,0,0,1,0,0,0,0,0,0,0,47,1,No
4,2,4,0,0,1,0,0,0,0,0,0,0,47,0,Yes
36,19,54,0,1,7,0,0,0,0,0,0,0,1049,16,No
4,4,7,0,1,5,0,0,0,0,0,0,0,943,4,No
3,5,13,0,0,1,0,0,0,0,0,0,0,53,0,No
13,15,42,0,1,6,0,0,0,0,0,0,0,1024,3,No
4,6,12,0,2,6,0,0,0,0,0,0,0,1024,1,No
11,3,16,0,3,6,0,0,0,0,0,0,0,997,1,No
2,9,5,3,2,5,2,2,1,1,1,2,4,443,0,No
0,0,0,0,0,3,0,0,0,0,0,0,0,1049,0,No
0,0,0,0,0,3,0,0,0,0,0,0,0,649,0,No
0,0,0,0,0,3,0,0,0,0,0,0,0,1049,0,No
0,1,0,0,0,2,0,0,0,0,0,0,0,90,2,No
11,9,15,0,1,7,0,0,0,0,0,0,0,1048,9,Yes
0,2,0,0,0,5,0,0,0,0,0,0,0,1047,1,No
4,5,4,0,1,5,0,0,0,0,0,0,0,997,2,No
7,12,17,0,3,7,0,0,0,0,0,0,0,538,3,No
0,3,0,0,1,6,0,0,0,0,0,0,0,538,0,No
7,13,27,0,2,7,0,0,0,0,0,0,0,548,6,No
0,2,0,0,1,4,0,0,0,0,0,0,0,718,0,No
3,2,3,0,0,4,0,0,0,0,0,0,0,430,0,No
39,19,75,0,2,7,0,0,0,0,0,0,0,430,3,No
11,18,70,0,3,5,0,0,0,0,0,0,0,418,5,No
25,17,40,0,2,7,0,0,0,0,0,0,0,1049,5,Yes
5,8,16,4,8,6,2,2,0,0,2,5,5,1018,3,No
35,14,43,0,3,6,0,0,0,0,0,0,0,1049,15,Yes
9,9,31,0,0,4,0,0,0,0,0,0,0,431,3,Yes
5,5,9,0,3,7,0,0,0,0,0,0,0,997,1,No
4,5,6,0,0,4,0,0,0,0,0,0,0,181,1,No
1,3,1,0,0,4,0,0,0,0,0,0,0,718,0,No
8,8,14,0,1,7,0,0,0,0,0,0,0,1049,5,No
1,2,1,0,0,6,0,0,0,0,0,0,0,648,0,No
19,14,35,0,2,7,0,0,0,0,0,0,0,1042,2,No
10,11,41,0,2,8,0,0,0,0,0,0,0,1024,6,No
5,5,8,0,1,6,0,0,0,0,0,0,0,457,2,No
1,6,2,0,1,6,0,0,0,0,0,0,0,648,0,No
11,14,19,0,3,7,0,0,0,0,0,0,0,913,2,No
11,12,16,0,1,7,0,0,0,0,0,0,0,1049,0,Yes
24,14,37,0,1,7,0,0,0,0,0,0,0,548,8,No
10,7,18,3,3,7,2,2,1,1,1,2,4,997,4,No
3,5,5,0,0,3,0,0,0,0,0,0,0,181,2,No
2,6,11,0,0,4,0,0,0,0,0,0,0,443,3,No
2,3,2,0,0,5,0,0,0,0,0,0,0,718,0,No
7,9,11,0,3,7,0,0,0,0,0,0,0,1049,4,No
2,1,2,0,0,4,0,0,0,0,0,0,0,718,0,No
4,6,12,0,1,5,0,0,0,0,0,0,0,718,1,No
0,2,0,0,0,5,0,0,0,0,0,0,0,1049,1,No
12,15,51,0,1,3,0,0,0,0,0,0,0,129,0,No
17,9,23,0,4,7,0,0,0,0,0,0,0,541,1,No
0,3,0,0,0,5,0,0,0,0,0,0,0,443,0,No
8,7,9,0,0,2,0,0,0,0,0,0,0,47,1,Yes
8,19,38,12,1,7,4,2,-4,0,2,2,2,633,2,No
8,7,12,0,2,5,0,0,0,0,0,0,0,716,0,No
2,0,2,0,0,4,0,0,0,0,0,0,0,1049,0,No
11,13,29,0,1,5,0,0,0,0,0,0,0,633,0,No
10,13,19,0,2,7,0,0,0,0,0,0,0,1049,6,No
15,15,23,0,3,7,0,0,0,0,0,0,0,599,3,No
14,14,33,0,1,7,0,0,0,0,0,0,0,605,1,No
11,15,20,0,2,7,0,0,0,0,0,0,0,1049,6,No
6,14,27,0,2,7,0,0,0,0,0,0,0,443,2,No
7,10,11,33,0,7,14,14,-5,0,4,13,15,443,1,No
20,18,93,156,9,8,84,80,12,12,8,21,24,443,4,No
5,5,15,0,0,7,0,0,0,0,0,0,0,557,1,No
6,12,18,62,2,7,42,42,22,22,1,2,4,633,2,No
19,10,36,0,0,3,0,0,0,0,0,0,0,181,0,No
1,7,1,3,2,7,2,2,1,1,1,2,4,534,2,No
3,3,3,0,0,3,0,0,0,0,0,0,0,129,0,No
11,11,15,0,2,4,0,0,0,0,0,0,0,129,1,No
6,6,11,0,0,7,0,0,0,0,0,0,0,557,1,No
1,4,1,0,0,4,0,0,0,0,0,0,0,534,6,No
1,7,1,0,2,5,0,0,0,0,0,0,0,534,0,No
12,15,22,0,2,7,0,0,0,0,0,0,0,1049,6,No
14,2,28,0,0,3,0,0,0,0,0,0,0,129,4,No
3,6,4,0,2,5,0,0,0,0,0,0,0,181,0,No
9,14,23,0,0,6,0,0,0,0,0,0,0,443,5,No
16,17,26,0,2,7,0,0,0,0,0,0,0,1049,6,No
1,5,2,0,0,6,0,0,0,0,0,0,0,545,0,No
3,5,5,0,1,5,0,0,0,0,0,0,0,1049,0,No
14,21,32,0,5,3,0,0,0,0,0,0,0,129,2,No
10,10,24,0,2,5,0,0,0,0,0,0,0,716,0,No
7,6,7,0,1,6,0,0,0,0,0,0,0,1088,0,Yes
3,2,3,0,2,6,0,0,0,0,0,0,0,548,0,No
2,2,2,0,1,5,0,0,0,0,0,0,0,845,0,No
1,1,1,0,0,5,0,0,0,0,0,0,0,1088,0,No
6,2,6,0,0,6,0,0,0,0,0,0,0,997,0,No
14,12,28,20,3,6,16,16,12,12,4,13,15,1024,1,No
2,0,2,0,0,4,0,0,0,0,0,0,0,1049,0,No
0,0,0,0,0,4,0,0,0,0,0,0,0,1049,1,No
7,8,9,0,0,6,0,0,0,0,0,0,0,997,0,No
7,7,7,0,0,6,0,0,0,0,0,0,0,538,0,No
7,7,16,0,3,7,0,0,0,0,0,0,0,605,1,Yes
11,5,12,6,1,6,2,2,-2,0,1,1,1,430,0,Yes
7,7,10,0,0,6,0,0,0,0,0,0,0,1018,0,No
11,10,11,0,0,7,0,0,0,0,0,0,0,1018,0,Yes
19,11,32,0,1,7,0,0,0,0,0,0,0,1088,0,No
17,13,23,0,0,8,0,0,0,0,0,0,0,913,0,Yes
5,5,5,0,0,8,0,0,0,0,0,0,0,531,0,No
14,13,16,0,1,7,0,0,0,0,0,0,0,1039,0,Yes
2,4,2,0,0,6,0,0,0,0,0,0,0,845,0,No
4,0,4,0,0,1,0,0,0,0,0,0,0,430,0,No
2,1,3,0,1,1,0,0,0,0,0,0,0,69,0,No
2,1,3,0,1,3,0,0,0,0,0,0,0,768,0,No
2,0,2,0,1,3,0,0,0,0,0,0,0,768,0,No
4,1,4,0,1,5,0,0,0,0,0,0,0,538,1,No
3,1,4,0,0,1,0,0,0,0,0,0,0,47,0,No
1,2,10,0,1,4,0,0,0,0,0,0,0,535,0,No
0,0,0,0,0,4,0,0,0,0,0,0,0,1049,0,No
0,0,0,0,0,4,0,0,0,0,0,0,0,1049,0,No
3,0,3,0,0,5,0,0,0,0,0,0,0,538,0,No
1,1,2,0,0,4,0,0,0,0,0,0,0,538,0,No
1,2,3,0,0,4,0,0,0,0,0,0,0,538,0,No
1,0,1,0,0,4,0,0,0,0,0,0,0,1049,0,No
3,0,3,0,1,5,0,0,0,0,0,0,0,1088,3,No
22,3,53,0,2,4,0,0,0,0,0,0,0,457,0,No
5,0,16,0,1,6,0,0,0,0,0,0,0,997,1,No
2,0,2,0,0,3,0,0,0,0,0,0,0,807,0,No
5,0,5,0,2,6,0,0,0,0,0,0,0,997,1,No
1,0,1,0,0,3,0,0,0,0,0,0,0,997,0,No
3,1,3,0,1,5,0,0,0,0,0,0,0,605,0,No
2,0,3,0,0,3,0,0,0,0,0,0,0,997,0,No
5,0,8,0,2,6,0,0,0,0,0,0,0,997,2,No
1,0,1,0,0,4,0,0,0,0,0,0,0,1049,0,No
6,1,32,0,0,6,0,0,0,0,0,0,0,605,1,No
4,0,5,0,0,6,0,0,0,0,0,0,0,605,3,No
9,0,23,0,1,7,0,0,0,0,0,0,0,605,6,No
19,0,35,0,2,6,0,0,0,0,0,0,0,605,1,No
0,0,0,0,0,3,0,0,0,0,0,0,0,1049,0,No
8,0,14,0,0,5,0,0,0,0,0,0,0,605,0,No
1,0,1,0,2,1,0,0,0,0,0,0,0,79,0,No
9,0,30,0,0,3,0,0,0,0,0,0,0,418,1,No
16,1,20,0,0,2,0,0,0,0,0,0,0,132,5,No
1,0,1,0,0,5,0,0,0,0,0,0,0,649,0,No
6,9,7,0,1,4,0,0,0,0,0,0,0,997,6,No
6,4,7,0,0,4,0,0,0,0,0,0,0,534,0,No
1,1,1,0,0,4,0,0,0,0,0,0,0,649,0,No
2,0,2,0,0,2,0,0,0,0,0,0,0,40,0,No
2,3,7,0,0,2,0,0,0,0,0,0,0,410,2,No
12,0,20,0,0,2,0,0,0,0,0,0,0,410,0,No
14,35,132,0,4,7,0,0,0,0,0,0,0,422,8,Yes
11,8,86,0,1,5,0,0,0,0,0,0,0,187,1,No
2,0,14,0,0,3,0,0,0,0,0,0,0,955,8,No
7,11,13,0,2,7,0,0,0,0,0,0,0,964,3,No
10,23,37,0,0,1,0,0,0,0,0,0,0,26,10,No
2,8,22,0,1,5,0,0,0,0,0,0,0,396,3,No
13,14,34,0,1,8,0,0,0,0,0,0,0,641,6,No
1,4,9,0,0,5,0,0,0,0,0,0,0,451,0,Yes
2,2,3,0,1,6,0,0,0,0,0,0,0,704,0,No
2,1,2,0,1,5,0,0,0,0,0,0,0,649,0,No
5,3,11,0,1,3,0,0,0,0,0,0,0,104,1,No
4,10,27,0,1,6,0,0,0,0,0,0,0,538,0,No
6,23,25,0,0,7,0,0,0,0,0,0,0,538,1,Yes
13,3,18,0,0,6,0,0,0,0,0,0,0,1042,0,No
2,0,2,0,0,3,0,0,0,0,0,0,0,1049,0,No
17,4,48,0,2,5,0,0,0,0,0,0,0,1077,3,No
25,0,42,0,1,4,0,0,0,0,0,0,0,1042,0,No
6,0,15,0,2,5,0,0,0,0,0,0,0,1088,1,No
6,2,6,0,0,6,0,0,0,0,0,0,0,1062,0,No
9,1,9,0,0,4,0,0,0,0,0,0,0,1045,1,No
8,0,13,0,0,5,0,0,0,0,0,0,0,443,0,No
12,1,19,0,0,2,0,0,0,0,0,0,0,168,2,No
17,2,24,0,0,5,0,0,0,0,0,0,0,1033,0,No
21,4,28,0,1,5,0,0,0,0,0,0,0,1075,3,No
8,0,10,0,0,5,0,0,0,0,0,0,0,723,0,No
8,1,8,0,0,5,0,0,0,0,0,0,0,1045,1,No
0,1,0,0,0,5,0,0,0,0,0,0,0,1042,0,No
23,4,30,0,0,5,0,0,0,0,0,0,0,1053,2,No
4,1,4,0,0,4,0,0,0,0,0,0,0,1077,0,No
44,7,49,0,0,6,0,0,0,0,0,0,0,1033,1,No
23,5,31,0,0,5,0,0,0,0,0,0,0,545,0,No
16,1,17,0,0,5,0,0,0,0,0,0,0,538,0,No
0,1,0,0,0,4,0,0,0,0,0,0,0,1042,0,No
6,4,6,0,2,5,0,0,0,0,0,0,0,618,0,No
18,5,18,0,0,5,0,0,0,0,0,0,0,926,0,No
13,2,27,0,0,4,0,0,0,0,0,0,0,443,1,No
6,1,8,0,0,4,0,0,0,0,0,0,0,443,0,No
5,2,7,0,0,4,0,0,0,0,0,0,0,443,0,No
8,1,8,0,0,5,0,0,0,0,0,0,0,649,0,No
0,1,0,0,0,5,0,0,0,0,0,0,0,1042,0,No
19,4,21,0,0,7,0,0,0,0,0,0,0,649,0,No
4,0,4,0,0,3,0,0,0,0,0,0,0,1088,0,No
6,2,6,0,0,4,0,0,0,0,0,0,0,1077,0,No
5,0,10,0,0,4,0,0,0,0,0,0,0,926,0,No
4,0,4,0,0,3,0,0,0,0,0,0,0,926,0,No
8,4,11,0,0,4,0,0,0,0,0,0,0,535,0,No
11,4,19,0,0,5,0,0,0,0,0,0,0,1042,0,No
5,3,7,0,0,5,0,0,0,0,0,0,0,884,0,No
3,2,4,0,0,5,0,0,0,0,0,0,0,1088,0,No
4,3,6,0,0,5,0,0,0,0,0,0,0,1042,0,No
0,1,0,0,0,4,0,0,0,0,0,0,0,1042,0,No
0,1,0,0,0,4,0,0,0,0,0,0,0,1042,0,No
5,3,7,0,0,6,0,0,0,0,0,0,0,1042,0,No
0,1,0,0,0,4,0,0,0,0,0,0,0,1042,0,No
24,7,36,0,0,6,0,0,0,0,0,0,0,1012,0,No
0,0,0,0,0,3,0,0,0,0,0,0,0,1049,0,No
11,4,19,0,0,5,0,0,0,0,0,0,0,1042,0,No
5,3,7,0,0,5,0,0,0,0,0,0,0,884,0,No
3,2,4,0,0,5,0,0,0,0,0,0,0,1088,0,No
4,3,6,0,0,5,0,0,0,0,0,0,0,1042,0,No
0,1,0,0,0,4,0,0,0,0,0,0,0,1042,0,No
8,3,19,0,0,2,0,0,0,0,0,0,0,168,1,No
3,2,5,0,0,5,0,0,0,0,0,0,0,1088,0,No
0,1,0,0,0,4,0,0,0,0,0,0,0,1042,0,No
5,3,8,0,0,6,0,0,0,0,0,0,0,1042,0,No
0,1,0,0,0,4,0,0,0,0,0,0,0,1042,0,No
45,13,84,0,0,5,0,0,0,0,0,0,0,1042,0,No
54,10,94,10,2,8,7,7,4,4,1,5,5,1042,1,No
11,4,19,0,0,5,0,0,0,0,0,0,0,1042,0,No
5,3,7,0,0,5,0,0,0,0,0,0,0,884,0,No
3,2,4,0,0,5,0,0,0,0,0,0,0,1088,0,No
4,3,6,0,0,5,0,0,0,0,0,0,0,1042,0,No
0,2,0,0,0,4,0,0,0,0,0,0,0,1042,0,No
10,3,23,0,0,2,0,0,0,0,0,0,0,168,1,No
3,2,5,0,0,5,0,0,0,0,0,0,0,1088,0,No
0,2,0,0,0,4,0,0,0,0,0,0,0,1042,0,No
5,3,8,0,0,6,0,0,0,0,0,0,0,1042,0,No
0,2,0,0,0,4,0,0,0,0,0,0,0,1042,0,No
5,2,5,0,0,4,0,0,0,0,0,0,0,1088,0,No
5,2,5,0,0,4,0,0,0,0,0,0,0,1088,0,No
4,5,4,0,0,6,0,0,0,0,0,0,0,1088,0,No
4,3,4,0,0,6,0,0,0,0,0,0,0,1088,0,Yes
5,2,5,0,0,4,0,0,0,0,0,0,0,1088,0,No
4,2,4,0,0,4,0,0,0,0,0,0,0,1088,0,No
2,1,2,0,0,5,0,0,0,0,0,0,0,1049,0,No
4,1,4,0,0,3,0,0,0,0,0,0,0,1049,0,No
5,2,5,0,0,4,0,0,0,0,0,0,0,1088,0,No
5,4,5,0,0,4,0,0,0,0,0,0,0,1088,0,No
6,3,6,0,0,4,0,0,0,0,0,0,0,1088,0,No
5,3,5,0,0,4,0,0,0,0,0,0,0,1088,0,No
5,4,5,0,0,4,0,0,0,0,0,0,0,1088,0,No
1,0,1,0,0,4,0,0,0,0,0,0,0,1049,0,No
0,0,0,0,0,5,0,0,0,0,0,0,0,1049,0,No
4,2,4,0,0,4,0,0,0,0,0,0,0,649,0,No
8,5,8,0,1,4,0,0,0,0,0,0,0,1049,0,No
7,2,7,0,0,4,0,0,0,0,0,0,0,1088,0,Yes
7,3,7,0,0,4,0,0,0,0,0,0,0,1088,0,No
6,4,6,0,0,4,0,0,0,0,0,0,0,1088,0,No
17,8,17,6,0,6,3,3,0,0,1,2,2,1088,1,Yes
5,4,5,0,0,4,0,0,0,0,0,0,0,1088,0,No
10,3,10,0,0,4,0,0,0,0,0,0,0,1088,0,Yes
8,3,8,0,0,4,0,0,0,0,0,0,0,1088,0,No
13,5,13,0,0,6,0,0,0,0,0,0,0,1088,0,Yes
4,2,4,0,0,4,0,0,0,0,0,0,0,649,0,No
5,2,5,0,0,4,0,0,0,0,0,0,0,1088,0,No
5,4,5,0,0,4,0,0,0,0,0,0,0,1088,0,No
8,10,53,0,0,9,0,0,0,0,0,0,0,832,2,Yes
2,0,6,0,1,7,0,0,0,0,0,0,0,1045,2,No
8,2,12,0,0,4,0,0,0,0,0,0,0,1088,0,Yes
5,2,7,0,0,4,0,0,0,0,0,0,0,1077,0,No
5,2,7,0,0,4,0,0,0,0,0,0,0,1077,0,No
16,16,106,0,0,7,0,0,0,0,0,0,0,1088,11,Yes
5,3,9,0,0,4,0,0,0,0,0,0,0,1077,1,No
4,6,9,0,0,5,0,0,0,0,0,0,0,1077,0,No
2,3,5,0,1,7,0,0,0,0,0,0,0,1045,2,No
5,2,7,0,0,4,0,0,0,0,0,0,0,1077,0,No
5,7,8,0,0,4,0,0,0,0,0,0,0,1077,0,No
6,5,9,0,0,4,0,0,0,0,0,0,0,1077,0,No
5,4,8,0,0,4,0,0,0,0,0,0,0,451,0,No
5,6,7,0,0,5,0,0,0,0,0,0,0,1012,0,No
4,3,4,0,0,4,0,0,0,0,0,0,0,545,0,No
8,6,14,0,0,4,0,0,0,0,0,0,0,618,0,No
7,3,10,0,0,4,0,0,0,0,0,0,0,443,0,Yes
8,4,12,0,0,4,0,0,0,0,0,0,0,443,0,No
6,14,23,0,0,7,0,0,0,0,0,0,0,1033,0,No
21,15,45,6,0,7,3,3,0,0,1,2,2,1077,0,Yes
5,7,8,0,0,4,0,0,0,0,0,0,0,1077,0,No
11,6,21,0,0,5,0,0,0,0,0,0,0,1077,0,Yes
9,7,14,0,0,4,0,0,0,0,0,0,0,1077,0,No
15,11,32,0,0,9,0,0,0,0,0,0,0,832,0,Yes
4,3,4,0,0,4,0,0,0,0,0,0,0,545,0,No
5,2,7,0,0,4,0,0,0,0,0,0,0,1077,0,No
5,7,8,0,0,4,0,0,0,0,0,0,0,1077,0,No
2,0,67,0,0,2,0,0,0,0,0,0,0,289,7,No
2,2,2,0,0,4,0,0,0,0,0,0,0,1059,0,No
1,2,2,0,0,5,0,0,0,0,0,0,0,1088,0,No
1,3,6,0,0,6,0,0,0,0,0,0,0,1088,0,No
1,2,2,0,0,5,0,0,0,0,0,0,0,1059,0,No
0,1,0,0,0,5,0,0,0,0,0,0,0,1088,0,No
0,0,0,0,0,3,0,0,0,0,0,0,0,1088,0,No
1,1,1,0,0,3,0,0,0,0,0,0,0,1059,0,No
1,1,1,4,1,4,4,4,4,4,2,3,19,1088,0,No
0,0,0,0,0,4,0,0,0,0,0,0,0,884,0,No
2,2,8,9,1,5,5,5,1,1,2,3,19,884,2,No
0,0,0,0,0,4,0,0,0,0,0,0,0,884,0,No
2,4,11,18,1,5,9,9,0,0,2,3,19,884,3,No
0,0,0,0,0,4,0,0,0,0,0,0,0,884,0,No
2,3,3,6,1,3,4,4,2,2,2,3,19,185,3,No
0,0,0,0,0,4,0,0,0,0,0,0,0,884,0,No
2,2,5,9,1,5,4,4,-1,0,2,3,19,884,2,No
1,0,2,0,0,4,0,0,0,0,0,0,0,884,0,No
0,0,0,0,0,4,0,0,0,0,0,0,0,884,0,No
4,5,19,33,1,7,19,19,5,5,2,3,19,884,3,No
4,1,7,17,1,5,12,12,7,7,2,3,19,884,0,No
0,0,0,0,0,4,0,0,0,0,0,0,0,649,0,No
2,2,7,14,1,5,8,8,2,2,2,3,19,545,1,No
0,0,0,0,0,4,0,0,0,0,0,0,0,884,0,No
2,9,21,21,2,6,12,12,3,3,2,3,19,618,3,No
0,0,0,0,0,4,0,0,0,0,0,0,0,649,0,No
2,4,10,5,1,5,3,3,1,1,2,3,19,884,2,No
0,0,0,0,0,4,0,0,0,0,0,0,0,649,0,No
2,3,6,10,1,5,6,6,2,2,2,3,19,649,2,No
0,0,0,0,0,4,0,0,0,0,0,0,0,649,0,No
2,2,8,10,1,8,6,6,2,2,2,3,19,649,2,No
0,0,0,0,0,4,0,0,0,0,0,0,0,884,0,No
2,3,9,7,1,5,3,3,-1,0,2,3,19,884,2,No
0,0,0,0,0,4,0,0,0,0,0,0,0,649,0,No
2,3,9,10,1,9,6,6,2,2,2,3,19,643,1,No
0,0,0,0,0,4,0,0,0,0,0,0,0,884,0,No
2,2,4,7,1,3,4,4,1,1,2,3,19,185,1,No
0,0,0,0,0,5,0,0,0,0,0,0,0,884,0,No
4,13,24,10,1,7,6,6,2,2,2,3,19,555,1,No
0,0,0,0,0,4,0,0,0,0,0,0,0,884,0,No
2,4,8,10,1,5,6,6,2,2,2,3,19,555,1,No
1,3,23,0,2,7,0,0,0,0,0,0,0,548,0,No
0,0,0,0,0,4,0,0,0,0,0,0,0,1049,0,No
12,2,58,0,0,7,0,0,0,0,0,0,0,605,0,No
0,0,0,0,0,4,0,0,0,0,0,0,0,1049,0,No
0,0,0,0,0,5,0,0,0,0,0,0,0,1049,0,No
1,2,1,0,0,4,0,0,0,0,0,0,0,618,1,No
1,7,18,0,0,5,0,0,0,0,0,0,0,618,1,No
0,0,0,0,0,1,0,0,0,0,0,0,0,187,1,No
1,1,1,0,1,6,0,0,0,0,0,0,0,548,0,No
17,4,17,13,0,3,10,10,7,7,4,13,15,101,0,No
4,3,4,0,0,4,0,0,0,0,0,0,0,132,0,No
2,2,2,0,0,5,0,0,0,0,0,0,0,649,2,No
2,2,2,0,0,5,0,0,0,0,0,0,0,1049,0,No
16,1,46,0,0,5,0,0,0,0,0,0,0,1003,0,No
1,0,1,0,0,4,0,0,0,0,0,0,0,1088,0,No
1,1,1,0,0,4,0,0,0,0,0,0,0,440,0,No
4,2,4,0,0,2,0,0,0,0,0,0,0,188,0,No
0,0,0,0,0,6,0,0,0,0,0,0,0,1049,0,No
10,21,61,0,1,5,0,0,0,0,0,0,0,188,10,No
11,0,21,27,0,2,22,22,17,17,4,13,15,95,2,No
22,10,97,22,0,8,20,20,18,18,4,13,15,961,40,No
1,4,3,0,0,4,0,0,0,0,0,0,0,166,0,No
2,7,9,45,1,3,19,19,-7,0,1,3,3,144,0,No
2,5,10,0,0,3,0,0,0,0,0,0,0,188,1,No
20,26,55,13,5,9,13,13,13,13,1,5,5,1026,5,No
0,0,0,0,0,3,0,0,0,0,0,0,0,1049,0,No
4,4,7,0,0,4,0,0,0,0,0,0,0,641,1,No
2,2,5,0,0,3,0,0,0,0,0,0,0,649,2,No
3,5,12,0,0,4,0,0,0,0,0,0,0,517,1,No
0,0,0,0,0,3,0,0,0,0,0,0,0,1049,0,No
4,5,5,0,1,4,0,0,0,0,0,0,0,649,0,No
0,0,0,0,0,4,0,0,0,0,0,0,0,649,0,No
2,12,11,0,0,4,0,0,0,0,0,0,0,443,1,No
0,0,0,0,0,3,0,0,0,0,0,0,0,649,1,No
2,1,2,0,0,5,0,0,0,0,0,0,0,443,0,No
0,1,0,0,0,4,0,0,0,0,0,0,0,649,0,No
1,2,10,0,1,2,0,0,0,0,0,0,0,418,0,No
6,22,44,0,2,5,0,0,0,0,0,0,0,649,5,Yes
4,11,15,0,0,4,0,0,0,0,0,0,0,1088,6,No
2,7,3,0,0,4,0,0,0,0,0,0,0,867,0,No
9,15,17,0,2,7,0,0,0,0,0,0,0,1013,2,No
13,22,36,44,2,9,37,37,30,30,4,13,15,1028,4,No
5,13,11,0,1,6,0,0,0,0,0,0,0,1040,0,No
10,14,21,0,1,6,0,0,0,0,0,0,0,810,4,No
6,9,10,0,1,6,0,0,0,0,0,0,0,545,3,No
15,18,24,0,3,7,0,0,0,0,0,0,0,605,2,Yes
16,21,40,0,1,7,0,0,0,0,0,0,0,443,7,Yes
9,29,29,0,1,8,0,0,0,0,0,0,0,1026,1,Yes
11,27,28,12,1,7,11,11,10,10,1,5,5,1017,0,Yes
5,13,11,0,1,6,0,0,0,0,0,0,0,1045,0,No
18,30,53,0,1,7,0,0,0,0,0,0,0,922,7,Yes
1,0,1,0,0,4,0,0,0,0,0,0,0,1088,0,No
39,32,67,27,3,8,15,15,3,3,2,5,5,1055,9,Yes
8,13,15,0,0,7,0,0,0,0,0,0,0,535,0,No
5,13,11,0,1,7,0,0,0,0,0,0,0,723,0,No
9,9,9,0,0,5,0,0,0,0,0,0,0,538,0,No
14,38,152,0,2,7,0,0,0,0,0,0,0,1016,9,No
2,2,2,0,0,4,0,0,0,0,0,0,0,1013,0,No
4,9,31,0,0,6,0,0,0,0,0,0,0,1028,0,No
4,6,7,0,0,4,0,0,0,0,0,0,0,1040,0,No
3,2,3,0,0,5,0,0,0,0,0,0,0,545,0,No
3,15,29,0,0,5,0,0,0,0,0,0,0,604,0,Yes
7,11,23,0,0,5,0,0,0,0,0,0,0,443,1,No
13,23,57,8,2,6,6,6,4,4,2,5,5,1026,0,No
6,25,54,29,1,6,29,29,29,29,1,5,5,1038,5,No
4,10,9,0,0,4,0,0,0,0,0,0,0,1040,0,No
7,25,50,0,0,8,0,0,0,0,0,0,0,926,1,Yes
8,0,10,0,0,4,0,0,0,0,0,0,0,1055,0,No
12,32,61,0,1,10,0,0,0,0,0,0,0,1038,5,Yes
6,8,10,0,0,6,0,0,0,0,0,0,0,535,0,No
4,2,4,0,0,5,0,0,0,0,0,0,0,723,0,No
3,0,18,0,1,3,0,0,0,0,0,0,0,100,1,No
9,12,36,0,1,5,0,0,0,0,0,0,0,100,1,No
5,0,5,0,0,4,0,0,0,0,0,0,0,1024,1,No
2,2,4,0,0,4,0,0,0,0,0,0,0,237,0,No
11,8,18,0,1,7,0,0,0,0,0,0,0,864,2,Yes
1,1,3,0,0,1,0,0,0,0,0,0,0,26,0,No
3,7,11,0,1,4,0,0,0,0,0,0,0,864,0,Yes
10,8,10,0,1,4,0,0,0,0,0,0,0,100,0,No
14,10,16,23,0,5,18,18,13,13,4,13,15,99,0,Yes
1,0,1,0,0,6,0,0,0,0,0,0,0,1088,0,No
32,0,32,0,0,3,0,0,0,0,0,0,0,100,0,No
2,4,2,0,0,5,0,0,0,0,0,0,0,1088,0,No
4,6,16,0,0,3,0,0,0,0,0,0,0,115,2,No
6,4,6,0,0,2,0,0,0,0,0,0,0,94,0,Yes
8,10,22,0,1,4,0,0,0,0,0,0,0,95,0,Yes
14,9,15,0,0,3,0,0,0,0,0,0,0,94,0,Yes
11,10,11,0,0,5,0,0,0,0,0,0,0,99,0,No
14,7,14,0,0,2,0,0,0,0,0,0,0,93,0,Yes
6,11,21,0,0,4,0,0,0,0,0,0,0,96,0,No
16,17,24,0,0,5,0,0,0,0,0,0,0,89,0,Yes
7,5,10,0,0,2,0,0,0,0,0,0,0,94,0,Yes
26,10,26,0,1,4,0,0,0,0,0,0,0,90,0,Yes
5,4,5,0,1,6,0,0,0,0,0,0,0,1088,0,No
4,5,10,0,0,1,0,0,0,0,0,0,0,87,1,No
6,2,6,0,0,7,0,0,0,0,0,0,0,524,3,No
6,2,6,0,0,7,0,0,0,0,0,0,0,524,6,No
1,1,1,0,1,6,0,0,0,0,0,0,0,1049,0,No
15,3,20,0,0,6,0,0,0,0,0,0,0,541,0,No
7,22,27,0,1,4,0,0,0,0,0,0,0,125,0,No
6,23,65,0,1,6,0,0,0,0,0,0,0,187,1,Yes
27,51,130,21,5,9,12,10,3,2,2,2,2,649,15,Yes
3,0,3,0,0,3,0,0,0,0,0,0,0,1088,0,No
33,48,142,0,1,5,0,0,0,0,0,0,0,1016,23,Yes
10,1,41,0,0,7,0,0,0,0,0,0,0,583,8,No
5,4,57,0,3,7,0,0,0,0,0,0,0,472,6,No
3,0,38,0,0,1,0,0,0,0,0,0,0,25,9,No
13,1,16,0,2,1,0,0,0,0,0,0,0,59,0,No
8,1,18,0,0,5,0,0,0,0,0,0,0,787,1,No
4,0,8,0,0,2,0,0,0,0,0,0,0,123,4,No
0,0,0,0,0,5,0,0,0,0,0,0,0,1049,0,No
7,5,37,0,1,4,0,0,0,0,0,0,0,746,11,No
9,26,97,0,2,4,0,0,0,0,0,0,0,423,8,No
4,1,16,0,1,4,0,0,0,0,0,0,0,237,0,No
4,10,20,0,0,4,0,0,0,0,0,0,0,649,0,No
1,0,5,6,1,1,3,3,0,0,1,3,3,32,0,No
5,1,15,0,1,2,0,0,0,0,0,0,0,74,0,No
6,1,6,0,1,2,0,0,0,0,0,0,0,74,0,No
5,0,5,0,0,4,0,0,0,0,0,0,0,1088,0,No
2,1,4,0,0,4,0,0,0,0,0,0,0,520,0,No
14,0,18,0,1,5,0,0,0,0,0,0,0,472,0,No
2,0,6,0,0,4,0,0,0,0,0,0,0,472,1,No
3,2,4,0,1,5,0,0,0,0,0,0,0,704,3,No
8,3,8,0,1,4,0,0,0,0,0,0,0,166,0,No
0,1,0,0,1,5,0,0,0,0,0,0,0,649,0,No
3,0,3,0,1,6,0,0,0,0,0,0,0,1049,0,No
9,1,9,0,1,4,0,0,0,0,0,0,0,538,0,No
1,8,3,0,1,4,0,0,0,0,0,0,0,104,2,No
0,0,0,0,0,3,0,0,0,0,0,0,0,1049,0,No
5,9,5,0,0,4,0,0,0,0,0,0,0,166,0,No
11,11,11,0,0,3,0,0,0,0,0,0,0,166,0,No
4,7,4,0,0,3,0,0,0,0,0,0,0,166,0,No
13,9,13,0,1,8,0,0,0,0,0,0,0,556,0,No
15,11,19,0,4,7,0,0,0,0,0,0,0,573,0,No
10,7,10,0,1,7,0,0,0,0,0,0,0,573,1,No
26,15,82,4,4,7,2,2,0,0,2,5,5,562,15,No
3,1,5,0,1,7,0,0,0,0,0,0,0,562,3,No
1,1,1,0,0,3,0,0,0,0,0,0,0,649,0,No
8,4,12,0,0,5,0,0,0,0,0,0,0,550,1,No
17,2,26,0,0,5,0,0,0,0,0,0,0,550,1,No
1,0,1,0,0,3,0,0,0,0,0,0,0,649,0,No
4,0,4,0,0,3,0,0,0,0,0,0,0,649,0,No
11,4,14,0,0,5,0,0,0,0,0,0,0,550,0,No
21,7,39,0,0,5,0,0,0,0,0,0,0,550,1,Yes
2,3,2,0,0,3,0,0,0,0,0,0,0,562,0,No
1,1,1,0,1,4,0,0,0,0,0,0,0,649,0,No
1,3,1,0,0,5,0,0,0,0,0,0,0,562,0,No
1,2,2,0,1,4,0,0,0,0,0,0,0,562,0,No
1,2,1,0,0,3,0,0,0,0,0,0,0,562,0,No
1,0,1,0,0,3,0,0,0,0,0,0,0,649,1,No
1,0,1,0,0,3,0,0,0,0,0,0,0,649,1,No
1,4,1,0,0,5,0,0,0,0,0,0,0,562,0,No
2,0,6,0,0,3,0,0,0,0,0,0,0,546,2,No
6,0,19,0,1,3,0,0,0,0,0,0,0,546,1,No
3,0,9,0,0,1,0,0,0,0,0,0,0,75,5,No
2,0,9,0,1,3,0,0,0,0,0,0,0,546,2,No
5,0,17,0,0,3,0,0,0,0,0,0,0,546,1,No
1,0,10,0,0,1,0,0,0,0,0,0,0,185,5,No
4,0,5,0,0,2,0,0,0,0,0,0,0,138,1,No
1,0,2,0,0,4,0,0,0,0,0,0,0,1131,0,No
2,0,2,0,0,4,0,0,0,0,0,0,0,507,0,No
3,4,16,0,1,3,0,0,0,0,0,0,0,139,4,No
8,6,9,0,2,2,0,0,0,0,0,0,0,158,0,No
13,8,17,0,0,3,0,0,0,0,0,0,0,158,0,No
2,3,2,0,0,4,0,0,0,0,0,0,0,1131,0,No
4,5,14,0,0,2,0,0,0,0,0,0,0,158,0,No
5,3,5,0,0,3,0,0,0,0,0,0,0,153,0,No
9,8,24,0,1,4,0,0,0,0,0,0,0,154,0,No
12,6,13,0,2,3,0,0,0,0,0,0,0,157,0,No
10,9,12,0,1,3,0,0,0,0,0,0,0,157,0,No
13,5,13,0,0,2,0,0,0,0,0,0,0,159,0,No
6,8,13,0,1,3,0,0,0,0,0,0,0,153,0,No
1,0,1,0,0,4,0,0,0,0,0,0,0,1131,0,No
4,2,8,0,1,5,0,0,0,0,0,0,0,1131,0,No
15,15,35,0,2,4,0,0,0,0,0,0,0,154,1,No
6,3,9,0,0,3,0,0,0,0,0,0,0,152,0,No
25,8,25,0,1,4,0,0,0,0,0,0,0,159,0,No
5,3,5,0,1,1,0,0,0,0,0,0,0,115,0,No
3,3,3,0,0,5,0,0,0,0,0,0,0,1131,0,No
3,0,3,0,0,4,0,0,0,0,0,0,0,1131,0,No
0,0,0,18,0,6,9,5,0,5,9,24,135,692,1,No
0,0,0,0,0,5,0,0,0,0,0,0,0,692,0,No
0,1,0,0,0,4,0,0,0,0,0,0,0,692,0,No
0,0,0,0,0,4,0,0,0,0,0,0,0,692,0,No
35,1,42,0,0,5,0,0,0,0,0,0,0,1047,0,No
11,1,12,0,0,4,0,0,0,0,0,0,0,1047,0,No
11,0,12,0,0,5,0,0,0,0,0,0,0,1131,2,No
2,1,2,0,0,4,0,0,0,0,0,0,0,1131,0,No
25,0,38,0,0,4,0,0,0,0,0,0,0,1067,0,No
15,1,26,0,0,5,0,0,0,0,0,0,0,1047,2,No
2,1,2,0,0,5,0,0,0,0,0,0,0,692,0,No
1,0,1,0,0,4,0,0,0,0,0,0,0,486,0,No
12,1,14,0,0,3,0,0,0,0,0,0,0,461,0,No
10,3,10,0,0,5,0,0,0,0,0,0,0,486,0,No
0,0,0,0,0,4,0,0,0,0,0,0,0,1092,1,No
7,1,11,0,0,4,0,0,0,0,0,0,0,978,0,No
3,1,3,0,0,4,0,0,0,0,0,0,0,1088,0,No
5,1,6,0,0,4,0,0,0,0,0,0,0,1131,1,No
29,1,51,2,0,5,2,2,2,2,1,4,18,978,1,No
3,1,3,2,0,5,2,2,2,2,1,4,18,1131,0,No
1,0,1,0,0,4,0,0,0,0,0,0,0,1092,0,No
8,3,8,0,1,3,0,0,0,0,0,0,0,158,0,No
13,7,13,0,1,3,0,0,0,0,0,0,0,158,0,No
2,1,2,0,0,4,0,0,0,0,0,0,0,1131,0,No
0,0,0,0,0,5,0,0,0,0,0,0,0,1092,0,No
4,2,4,0,0,2,0,0,0,0,0,0,0,158,1,No
5,1,5,1,0,4,0,0,-1,0,1,4,18,153,0,No
7,3,7,0,1,3,0,0,0,0,0,0,0,154,0,Yes
12,3,12,0,1,3,0,0,0,0,0,0,0,157,0,No
2,0,2,0,0,5,0,0,0,0,0,0,0,1131,0,No
10,6,10,0,0,3,0,0,0,0,0,0,0,157,0,No
13,3,13,0,0,3,0,0,0,0,0,0,0,159,0,Yes
5,3,5,0,0,3,0,0,0,0,0,0,0,153,0,No
14,8,14,0,0,4,0,0,0,0,0,0,0,154,0,Yes
6,1,6,0,0,3,0,0,0,0,0,0,0,153,1,No
25,6,25,0,1,5,0,0,0,0,0,0,0,159,0,Yes
5,2,5,0,1,5,0,0,0,0,0,0,0,1131,0,No
3,2,3,0,0,3,0,0,0,0,0,0,0,158,0,No
20,0,29,0,0,6,0,0,0,0,0,0,0,1098,1,No
10,1,14,0,0,4,0,0,0,0,0,0,0,969,0,No
2,1,2,0,0,4,0,0,0,0,0,0,0,1131,0,No
2,2,2,0,0,4,0,0,0,0,0,0,0,1131,0,No
8,1,13,0,0,5,0,0,0,0,0,0,0,1131,2,No
6,1,8,27,0,2,16,16,5,5,2,4,5,90,0,No
9,1,16,33,0,2,20,20,7,7,2,4,5,90,1,No
4,1,4,0,0,4,0,0,0,0,0,0,0,1131,0,No
14,2,14,0,0,4,0,0,0,0,0,0,0,1069,0,No
3,1,3,0,0,4,0,0,0,0,0,0,0,1131,2,No
23,3,31,0,0,7,0,0,0,0,0,0,0,1071,2,No
5,1,7,0,1,5,0,0,0,0,0,0,0,507,0,No
3,1,3,0,0,5,0,0,0,0,0,0,0,1131,0,No
2,0,2,0,0,4,0,0,0,0,0,0,0,1088,0,No
3,1,3,0,0,1,0,0,0,0,0,0,0,159,0,No
3,1,3,0,0,4,0,0,0,0,0,0,0,1131,0,No
4,2,4,0,0,4,0,0,0,0,0,0,0,1131,0,No
3,1,3,0,0,4,0,0,0,0,0,0,0,1131,0,No
16,3,16,0,0,5,0,0,0,0,0,0,0,1076,0,No
11,2,27,0,1,4,0,0,0,0,0,0,0,211,2,No
12,0,12,0,0,5,0,0,0,0,0,0,0,1131,2,No
24,4,27,0,0,6,0,0,0,0,0,0,0,588,0,No
16,1,18,0,0,5,0,0,0,0,0,0,0,581,1,No
2,2,2,0,0,4,0,0,0,0,0,0,0,1131,0,No
6,2,6,0,0,4,0,0,0,0,0,0,0,1131,0,No
3,1,3,0,0,1,0,0,0,0,0,0,0,159,0,No
6,1,9,0,0,2,0,0,0,0,0,0,0,138,1,No
8,2,8,0,0,5,0,0,0,0,0,0,0,483,0,No
18,3,18,0,0,4,0,0,0,0,0,0,0,969,0,No
2,0,2,0,0,4,0,0,0,0,0,0,0,692,0,No
24,4,32,0,0,5,0,0,0,0,0,0,0,486,0,No
42,4,42,0,1,4,0,0,0,0,0,0,0,1067,0,No
30,0,37,0,0,5,0,0,0,0,0,0,0,1060,1,No
12,0,16,0,0,5,0,0,0,0,0,0,0,1131,0,No
18,1,19,0,0,6,0,0,0,0,0,0,0,1131,0,No
3,1,3,0,0,1,0,0,0,0,0,0,0,159,0,No
2,2,2,0,0,4,0,0,0,0,0,0,0,1131,0,No
18,0,18,0,0,4,0,0,0,0,0,0,0,692,0,No
2,0,2,0,0,4,0,0,0,0,0,0,0,969,0,No
12,1,16,0,0,6,0,0,0,0,0,0,0,969,0,No
1,0,1,0,0,5,0,0,0,0,0,0,0,1131,0,No
10,3,13,0,0,5,0,0,0,0,0,0,0,578,1,No
25,0,31,0,0,5,0,0,0,0,0,0,0,1098,1,No
3,1,3,0,0,4,0,0,0,0,0,0,0,1131,0,No
2,0,2,0,0,5,0,0,0,0,0,0,0,1131,0,No
4,1,4,0,0,4,0,0,0,0,0,0,0,692,0,No
20,2,21,0,0,4,0,0,0,0,0,0,0,594,0,No
20,1,27,0,0,6,0,0,0,0,0,0,0,594,2,No
0,1,0,0,0,4,0,0,0,0,0,0,0,1092,1,No
20,1,24,20,0,5,10,10,0,0,1,4,18,1092,0,No
1,0,1,2,0,5,1,1,0,0,1,4,18,1092,1,No
2,0,4,0,0,4,0,0,0,0,0,0,0,1131,3,No
2,0,2,0,0,5,0,0,0,0,0,0,0,1131,2,No
5,3,9,0,0,2,0,0,0,0,0,0,0,445,0,No
2,0,2,0,0,5,0,0,0,0,0,0,0,1092,2,No
1,0,1,2,0,6,1,1,0,0,1,4,18,1092,1,No
15,1,17,0,0,5,0,0,0,0,0,0,0,1131,1,No
7,1,7,0,0,4,0,0,0,0,0,0,0,1131,1,No
1,0,1,0,0,4,0,0,0,0,0,0,0,1092,0,No
1,0,1,2,0,5,1,1,0,0,1,4,18,1092,1,No
2,0,2,0,1,3,0,0,0,0,0,0,0,418,1,No
5,0,17,2,2,7,1,1,0,0,2,2,9,1092,9,No
1,0,1,2,0,5,1,1,0,0,1,4,18,1092,1,No
0,0,0,25,1,2,14,14,3,3,2,4,5,112,0,No
48,1,52,48,0,6,24,24,0,0,1,4,18,661,0,No
2,0,2,2,0,5,1,1,0,0,1,4,18,1092,1,No
0,0,0,0,0,4,0,0,0,0,0,0,0,1092,0,No
2,0,3,2,0,5,1,1,0,0,1,4,18,1092,1,No
0,0,0,0,0,4,0,0,0,0,0,0,0,1092,0,No
1,0,1,2,0,5,1,1,0,0,1,4,18,1092,1,No
1,0,1,2,0,5,1,1,0,0,1,4,18,1092,1,No
2,4,2,0,1,4,0,0,0,0,0,0,0,692,1,No
10,2,11,8,0,8,4,4,0,0,1,4,18,1092,0,No
3,0,6,0,1,4,0,0,0,0,0,0,0,1076,1,No
2,0,9,0,0,4,0,0,0,0,0,0,0,494,0,No
1,0,1,0,0,4,0,0,0,0,0,0,0,1092,0,No
2,0,5,4,0,5,2,2,0,0,1,4,18,692,3,No
0,0,0,0,0,4,0,0,0,0,0,0,0,1092,0,No
1,0,1,2,0,5,1,1,0,0,1,4,18,692,1,No
0,0,0,0,0,4,0,0,0,0,0,0,0,692,0,No
0,0,0,0,0,4,0,0,0,0,0,0,0,1092,0,No
11,11,53,0,0,6,0,0,0,0,0,0,0,574,0,No
17,10,34,0,1,4,0,0,0,0,0,0,0,143,1,No
7,1,14,8,2,6,4,4,0,0,1,4,18,1076,0,No
1,1,11,0,2,4,0,0,0,0,0,0,0,1076,2,No
8,1,8,12,0,5,6,6,0,0,1,4,18,1076,0,No
8,14,18,37,0,6,18,9,-1,0,5,11,58,1092,0,No
1,1,8,0,0,3,0,0,0,0,0,0,0,955,1,No
13,31,14,2,2,7,1,1,0,0,1,2,2,1092,0,No
4,4,10,0,1,6,0,0,0,0,0,0,0,584,2,Yes
3,0,3,0,0,2,0,0,0,0,0,0,0,293,0,No
0,0,0,74,0,2,54,36,34,36,7,15,63,24,0,No
0,0,0,16,0,4,16,8,16,8,5,15,121,1092,0,No
3,1,4,0,0,5,0,0,0,0,0,0,0,692,2,No
6,1,10,2,0,4,1,1,0,0,2,5,40,473,0,No
3,0,3,0,0,2,0,0,0,0,0,0,0,130,1,No
2,0,2,0,0,5,0,0,0,0,0,0,0,692,0,No
10,0,21,0,2,6,0,0,0,0,0,0,0,846,3,No
7,2,12,0,0,4,0,0,0,0,0,0,0,851,1,No
1,1,4,0,0,3,0,0,0,0,0,0,0,1131,1,No
1,6,3,0,1,4,0,0,0,0,0,0,0,761,0,No
13,2,13,0,0,5,0,0,0,0,0,0,0,983,2,No
2,0,3,0,0,3,0,0,0,0,0,0,0,1131,0,No
7,0,12,0,0,5,0,0,0,0,0,0,0,691,1,No
2,3,12,0,2,6,0,0,0,0,0,0,0,809,2,No
2,0,7,0,1,5,0,0,0,0,0,0,0,811,0,No
7,0,7,0,0,3,0,0,0,0,0,0,0,1131,0,No
9,6,34,35,0,4,21,19,7,11,5,11,58,474,2,No
2,0,8,0,0,6,0,0,0,0,0,0,0,920,0,No
8,3,28,47,0,4,22,20,-3,0,4,13,77,473,2,No
2,0,4,0,0,1,0,0,0,0,0,0,0,130,0,No
4,8,4,39,0,4,38,32,37,32,6,15,102,1092,0,No
3,7,8,11,1,6,6,4,1,1,3,9,84,691,1,No
2,2,2,5,0,5,0,0,-5,0,1,4,44,761,0,No
10,12,29,15,1,5,6,4,-3,1,3,9,84,591,2,No
1,1,1,6,1,5,1,1,-4,0,4,10,62,1092,0,No
9,4,16,22,0,7,7,4,-8,0,6,15,102,1092,2,No
6,6,7,24,0,2,13,10,2,4,6,14,74,90,1,No
4,2,4,6,0,3,3,2,0,1,6,10,26,90,0,No
36,20,54,61,1,7,31,18,1,1,7,22,161,1092,17,No
4,4,7,6,1,6,3,3,0,0,1,4,44,986,4,No
3,5,13,2,0,2,1,1,0,0,1,4,44,96,0,No
13,16,42,24,2,7,13,4,2,1,8,23,162,1067,3,No
4,7,12,26,2,6,12,6,-2,1,5,16,124,1067,1,No
11,3,16,6,3,6,3,3,0,0,1,4,44,1040,1,No
2,8,5,9,2,5,2,1,-5,0,2,6,50,486,0,No
0,0,0,0,0,3,0,0,0,0,0,0,0,1092,0,No
0,0,0,0,0,3,0,0,0,0,0,0,0,692,0,No
0,0,0,0,0,3,0,0,0,0,0,0,0,1092,0,No
0,1,0,0,0,2,0,0,0,0,0,0,0,133,2,No
11,10,15,20,2,7,11,9,2,1,3,6,42,1091,9,No
0,2,0,0,0,5,0,0,0,0,0,0,0,1090,1,No
4,5,4,4,1,6,2,2,0,0,1,4,44,1040,2,No
7,12,17,40,3,7,16,4,-8,1,8,24,166,581,3,No
0,3,0,0,1,6,0,0,0,0,0,0,0,581,0,No
7,14,27,16,2,7,8,4,0,1,4,11,90,591,6,No
0,2,0,0,1,4,0,0,0,0,0,0,0,761,0,No
3,3,3,7,0,4,4,2,1,1,4,13,77,473,0,No
39,19,75,33,2,7,15,9,-3,1,7,22,161,473,3,No
11,17,70,30,3,6,10,5,-10,1,6,19,126,461,3,No
25,16,40,73,3,8,35,28,-3,1,9,25,169,1092,5,Yes
5,8,16,20,8,7,8,6,-4,1,3,9,84,1061,3,No
35,13,43,26,3,7,11,6,-4,1,7,20,123,1092,15,Yes
11,13,33,479,1,5,253,120,27,20,8,19,110,474,3,No
5,6,9,12,3,7,7,3,2,1,4,11,90,1040,1,No
4,5,6,0,0,4,0,0,0,0,0,0,0,224,1,No
1,2,1,5,0,5,0,0,-5,0,1,4,44,761,0,No
8,9,14,16,1,7,9,5,2,1,4,11,87,1092,5,No
1,2,1,0,0,6,0,0,0,0,0,0,0,691,0,No
19,14,35,8,2,7,4,2,0,1,6,18,117,1085,2,No
10,11,41,36,2,8,16,10,-4,1,7,22,161,1067,6,No
5,5,8,14,1,6,5,3,-4,1,3,9,84,500,2,No
1,5,2,5,1,6,0,0,-5,0,1,4,44,691,0,No
11,14,19,16,3,7,6,4,-4,1,3,9,84,956,2,No
11,12,16,5,1,7,2,1,-1,0,2,6,50,1092,0,Yes
24,13,37,22,1,7,9,4,-4,1,7,20,123,591,8,No
10,8,18,9,3,7,5,2,1,1,4,11,90,1040,4,No
3,5,5,12,0,4,4,3,-4,0,2,6,49,224,1,No
2,5,11,6,0,5,1,1,-4,0,1,4,44,486,3,No
2,2,2,5,0,5,0,0,-5,0,1,4,44,761,0,No
7,10,11,7,3,7,4,2,1,1,4,11,89,1092,4,No
2,1,2,2,0,5,1,1,0,0,1,4,44,761,0,No
4,7,12,25,1,6,11,6,-3,1,5,16,124,761,1,No
0,2,0,0,0,5,0,0,0,0,0,0,0,1092,1,No
12,15,51,0,1,3,0,0,0,0,0,0,0,172,0,No
17,9,23,8,4,7,4,2,0,1,6,18,117,584,1,No
0,3,0,85,0,2,68,52,51,52,7,18,106,24,0,No
0,3,0,0,0,5,0,0,0,0,0,0,0,486,0,No
8,8,9,38,0,3,21,19,4,4,5,11,51,90,1,Yes
8,19,38,0,1,7,0,0,0,0,0,0,0,676,2,No
9,8,13,19,2,6,13,11,7,6,4,13,77,759,0,No
2,0,2,0,0,4,0,0,0,0,0,0,0,1092,0,No
11,13,29,0,1,5,0,0,0,0,0,0,0,676,0,No
10,10,19,60,2,7,21,12,-18,1,9,24,135,1092,6,No
15,15,23,18,3,7,9,2,0,1,8,24,167,642,3,No
14,15,33,8,1,7,5,2,2,1,7,19,95,648,1,No
11,12,20,60,2,7,21,12,-18,1,9,24,135,1092,6,No
6,15,27,7,2,7,4,2,1,1,4,13,77,486,2,No
7,11,11,11,0,7,6,3,1,1,4,13,77,486,1,No
20,19,93,69,9,8,30,22,-9,0,4,13,77,486,3,No
5,5,15,0,0,7,0,0,0,0,0,0,0,600,1,No
6,13,18,18,2,7,11,5,4,3,4,10,49,676,2,No
19,10,36,3,0,3,1,1,-1,0,1,1,2,224,0,No
6,7,6,84,2,7,63,57,42,39,3,7,52,577,3,No
3,2,3,13,0,3,2,2,-9,0,1,1,2,172,0,No
11,12,15,5,2,4,3,3,1,1,1,4,44,172,1,No
6,7,11,21,0,7,13,10,5,4,4,13,77,600,1,No
5,4,5,67,0,5,46,45,25,25,2,3,5,577,5,No
1,7,1,3,2,6,2,2,1,1,1,2,6,577,0,No
12,12,22,67,2,7,24,15,-19,1,9,24,135,1092,6,No
14,3,28,23,0,3,12,6,1,1,4,13,77,172,4,No
3,6,4,0,2,5,0,0,0,0,0,0,0,224,0,No
10,15,24,51,0,6,29,14,7,9,6,13,61,486,5,No
16,14,26,68,2,7,25,16,-18,1,9,24,135,1092,6,No
1,5,2,0,0,6,0,0,0,0,0,0,0,588,0,No
6,5,8,37,1,6,29,29,21,21,1,2,5,1092,1,No
14,21,32,4,5,4,2,2,0,0,1,4,44,172,2,No
10,11,24,11,2,6,6,3,1,1,4,13,77,759,0,No
7,6,7,0,1,6,0,0,0,0,0,0,0,1131,0,Yes
3,2,3,0,2,6,0,0,0,0,0,0,0,591,0,No
2,2,2,0,1,5,0,0,0,0,0,0,0,888,0,No
1,1,1,0,0,5,0,0,0,0,0,0,0,1131,0,No
6,2,6,0,0,6,0,0,0,0,0,0,0,1040,0,No
14,12,28,0,3,6,0,0,0,0,0,0,0,1067,1,No
2,0,2,0,0,4,0,0,0,0,0,0,0,1092,0,No
0,0,0,0,0,4,0,0,0,0,0,0,0,1092,1,No
7,8,9,0,0,6,0,0,0,0,0,0,0,1040,0,No
7,7,7,0,0,6,0,0,0,0,0,0,0,581,0,No
7,7,16,4,3,7,1,1,-2,0,2,7,40,648,1,Yes
11,5,12,0,1,6,0,0,0,0,0,0,0,473,0,Yes
7,7,10,0,0,6,0,0,0,0,0,0,0,1061,0,No
11,10,11,0,0,7,0,0,0,0,0,0,0,1061,0,Yes
19,11,32,0,1,7,0,0,0,0,0,0,0,1131,0,No
17,13,23,0,0,8,0,0,0,0,0,0,0,956,0,Yes
5,5,5,0,0,8,0,0,0,0,0,0,0,574,0,No
14,13,16,0,1,7,0,0,0,0,0,0,0,1082,0,Yes
2,4,2,0,0,6,0,0,0,0,0,0,0,888,0,No
4,0,4,0,0,1,0,0,0,0,0,0,0,473,0,No
2,1,3,0,1,1,0,0,0,0,0,0,0,112,0,No
2,1,3,0,1,3,0,0,0,0,0,0,0,811,0,No
2,0,2,0,1,3,0,0,0,0,0,0,0,811,0,No
4,1,4,0,1,5,0,0,0,0,0,0,0,581,1,No
3,1,4,0,0,1,0,0,0,0,0,0,0,90,0,No
1,2,10,0,1,4,0,0,0,0,0,0,0,578,0,No
0,0,0,0,0,4,0,0,0,0,0,0,0,1092,0,No
0,0,0,0,0,4,0,0,0,0,0,0,0,1092,0,No
3,0,3,0,0,5,0,0,0,0,0,0,0,581,0,No
1,1,2,0,0,4,0,0,0,0,0,0,0,581,0,No
1,2,3,0,0,4,0,0,0,0,0,0,0,581,0,No
1,0,1,0,0,4,0,0,0,0,0,0,0,1092,0,No
3,0,3,0,1,5,0,0,0,0,0,0,0,1131,3,No
22,3,53,0,2,4,0,0,0,0,0,0,0,500,0,No
5,1,16,7,1,7,4,2,1,1,4,13,77,1040,1,No
2,0,2,0,0,3,0,0,0,0,0,0,0,850,0,No
5,1,5,7,2,7,4,2,1,1,4,13,77,1040,1,No
1,1,1,7,0,4,4,2,1,1,4,13,77,1040,0,No
3,1,3,0,1,5,0,0,0,0,0,0,0,648,0,No
2,1,3,7,0,4,4,2,1,1,4,13,77,1040,0,No
5,1,8,7,2,7,4,2,1,1,4,13,77,1040,2,No
1,0,1,0,0,4,0,0,0,0,0,0,0,1092,0,No
6,1,32,0,0,6,0,0,0,0,0,0,0,648,1,No
4,1,5,8,0,7,5,3,2,2,4,13,77,648,3,No
9,2,23,18,1,8,10,5,2,1,4,13,77,648,7,No
19,0,35,0,2,6,0,0,0,0,0,0,0,648,1,No
0,0,0,0,0,3,0,0,0,0,0,0,0,1092,0,No
8,1,14,7,0,6,4,2,1,1,4,13,77,648,0,No
1,0,1,0,2,1,0,0,0,0,0,0,0,122,0,No
9,0,30,0,0,3,0,0,0,0,0,0,0,461,1,No
16,1,20,0,0,2,0,0,0,0,0,0,0,175,5,No
1,0,1,0,0,5,0,0,0,0,0,0,0,692,0,No
6,10,7,12,1,5,3,3,-6,0,1,4,44,1040,5,No
6,4,7,0,0,4,0,0,0,0,0,0,0,577,0,No
1,1,1,0,0,4,0,0,0,0,0,0,0,692,0,No
2,0,2,25,0,3,14,14,3,3,2,4,5,83,0,No
2,3,7,0,0,2,0,0,0,0,0,0,0,453,2,No
12,0,20,0,0,2,0,0,0,0,0,0,0,453,0,No
14,36,132,4,4,8,2,2,0,0,1,3,4,465,8,Yes
11,8,86,0,1,5,0,0,0,0,0,0,0,230,1,No
2,0,14,0,0,3,0,0,0,0,0,0,0,998,8,No
7,11,13,0,2,7,0,0,0,0,0,0,0,1007,3,No
10,23,37,0,0,1,0,0,0,0,0,0,0,69,10,No
2,8,22,0,1,5,0,0,0,0,0,0,0,439,3,Yes
13,14,34,0,1,8,0,0,0,0,0,0,0,684,6,Yes
1,4,9,0,0,5,0,0,0,0,0,0,0,494,0,Yes
2,2,3,0,1,6,0,0,0,0,0,0,0,747,0,No
2,1,2,0,1,5,0,0,0,0,0,0,0,692,0,No
5,3,11,0,1,3,0,0,0,0,0,0,0,147,1,No
4,10,27,0,1,6,0,0,0,0,0,0,0,581,0,No
6,23,25,0,0,7,0,0,0,0,0,0,0,581,1,Yes
13,3,18,0,0,6,0,0,0,0,0,0,0,1085,0,No
2,0,2,0,0,3,0,0,0,0,0,0,0,1092,0,No
17,4,48,0,2,5,0,0,0,0,0,0,0,1120,3,No
25,0,42,0,1,4,0,0,0,0,0,0,0,1085,0,No
6,0,15,0,2,5,0,0,0,0,0,0,0,1131,1,No
6,2,6,0,0,6,0,0,0,0,0,0,0,1105,0,No
9,1,9,0,0,4,0,0,0,0,0,0,0,1088,1,No
8,0,13,0,0,5,0,0,0,0,0,0,0,486,0,No
12,1,19,0,0,2,0,0,0,0,0,0,0,211,2,No
17,2,24,0,0,5,0,0,0,0,0,0,0,1076,0,No
21,4,28,0,1,5,0,0,0,0,0,0,0,1118,3,No
8,0,10,0,0,5,0,0,0,0,0,0,0,766,0,No
8,1,8,0,0,5,0,0,0,0,0,0,0,1088,1,No
0,1,0,0,0,5,0,0,0,0,0,0,0,1085,0,No
23,4,30,0,0,5,0,0,0,0,0,0,0,1096,2,No
4,1,4,0,0,4,0,0,0,0,0,0,0,1120,0,No
44,7,49,0,0,6,0,0,0,0,0,0,0,1076,1,No
23,5,31,0,0,5,0,0,0,0,0,0,0,588,0,No
16,1,17,0,0,5,0,0,0,0,0,0,0,581,0,No
0,1,0,0,0,4,0,0,0,0,0,0,0,1085,0,No
6,4,6,0,2,5,0,0,0,0,0,0,0,661,0,No
18,5,18,0,0,5,0,0,0,0,0,0,0,969,0,No
13,2,27,0,0,4,0,0,0,0,0,0,0,486,1,No
6,1,8,0,0,4,0,0,0,0,0,0,0,486,0,No
5,2,7,0,0,4,0,0,0,0,0,0,0,486,0,No
8,1,8,0,0,5,0,0,0,0,0,0,0,692,0,No
0,1,0,0,0,5,0,0,0,0,0,0,0,1085,0,No
19,4,21,0,0,7,0,0,0,0,0,0,0,692,0,No
4,0,4,0,0,3,0,0,0,0,0,0,0,1131,0,No
6,2,6,0,0,4,0,0,0,0,0,0,0,1120,0,No
5,0,10,0,0,4,0,0,0,0,0,0,0,969,0,No
4,0,4,0,0,3,0,0,0,0,0,0,0,969,0,No
8,4,11,0,0,4,0,0,0,0,0,0,0,578,0,No
11,4,19,0,0,5,0,0,0,0,0,0,0,1085,0,No
5,3,7,0,0,5,0,0,0,0,0,0,0,927,0,No
3,2,4,0,0,5,0,0,0,0,0,0,0,1131,0,No
4,3,6,0,0,5,0,0,0,0,0,0,0,1085,0,No
0,1,0,0,0,4,0,0,0,0,0,0,0,1085,0,No
0,1,0,0,0,4,0,0,0,0,0,0,0,1085,0,No
5,3,7,0,0,6,0,0,0,0,0,0,0,1085,0,No
0,1,0,0,0,4,0,0,0,0,0,0,0,1085,0,No
24,7,36,0,0,6,0,0,0,0,0,0,0,1055,0,No
0,0,0,0,0,3,0,0,0,0,0,0,0,1092,0,No
11,4,19,0,0,5,0,0,0,0,0,0,0,1085,0,No
5,3,7,0,0,5,0,0,0,0,0,0,0,927,0,No
3,2,4,0,0,5,0,0,0,0,0,0,0,1131,0,No
4,3,6,0,0,5,0,0,0,0,0,0,0,1085,0,No
0,1,0,0,0,4,0,0,0,0,0,0,0,1085,0,No
8,3,19,0,0,2,0,0,0,0,0,0,0,211,1,No
3,2,5,0,0,5,0,0,0,0,0,0,0,1131,0,No
0,1,0,0,0,4,0,0,0,0,0,0,0,1085,0,No
5,3,8,0,0,6,0,0,0,0,0,0,0,1085,0,No
0,1,0,0,0,4,0,0,0,0,0,0,0,1085,0,No
45,13,84,0,0,5,0,0,0,0,0,0,0,1085,0,No
54,11,94,6,2,8,4,4,2,2,1,3,4,1085,1,No
11,4,19,0,0,5,0,0,0,0,0,0,0,1085,0,No
5,3,7,0,0,5,0,0,0,0,0,0,0,927,0,No
3,2,4,0,0,5,0,0,0,0,0,0,0,1131,0,No
4,3,6,0,0,5,0,0,0,0,0,0,0,1085,0,No
0,2,0,0,0,4,0,0,0,0,0,0,0,1085,0,No
10,3,23,0,0,2,0,0,0,0,0,0,0,211,1,No
3,2,5,0,0,5,0,0,0,0,0,0,0,1131,0,No
0,2,0,0,0,4,0,0,0,0,0,0,0,1085,0,No
5,3,8,0,0,6,0,0,0,0,0,0,0,1085,0,No
0,2,0,0,0,4,0,0,0,0,0,0,0,1085,0,No
5,2,5,0,0,4,0,0,0,0,0,0,0,1131,0,No
5,2,5,0,0,4,0,0,0,0,0,0,0,1131,0,No
4,5,4,0,0,6,0,0,0,0,0,0,0,1131,0,No
4,3,4,0,0,6,0,0,0,0,0,0,0,1131,0,Yes
5,2,5,0,0,4,0,0,0,0,0,0,0,1131,0,No
4,2,4,0,0,4,0,0,0,0,0,0,0,1131,0,No
2,1,2,0,0,5,0,0,0,0,0,0,0,1092,0,No
4,1,4,0,0,3,0,0,0,0,0,0,0,1092,0,No
5,2,5,0,0,4,0,0,0,0,0,0,0,1131,0,No
5,4,5,0,0,4,0,0,0,0,0,0,0,1131,0,No
6,3,6,0,0,4,0,0,0,0,0,0,0,1131,0,No
5,3,5,0,0,4,0,0,0,0,0,0,0,1131,0,No
5,4,5,0,0,4,0,0,0,0,0,0,0,1131,0,No
1,0,1,0,0,4,0,0,0,0,0,0,0,1092,0,No
0,0,0,0,0,5,0,0,0,0,0,0,0,1092,0,No
4,2,4,0,0,4,0,0,0,0,0,0,0,692,0,No
8,5,8,0,1,4,0,0,0,0,0,0,0,1092,0,No
7,2,7,0,0,4,0,0,0,0,0,0,0,1131,0,Yes
7,3,7,0,0,4,0,0,0,0,0,0,0,1131,0,No
6,4,6,0,0,4,0,0,0,0,0,0,0,1131,0,No
17,8,17,0,0,6,0,0,0,0,0,0,0,1131,1,Yes
5,4,5,0,0,4,0,0,0,0,0,0,0,1131,0,No
10,3,10,0,0,4,0,0,0,0,0,0,0,1131,0,Yes
8,3,8,0,0,4,0,0,0,0,0,0,0,1131,0,No
13,5,13,0,0,6,0,0,0,0,0,0,0,1131,0,Yes
4,2,4,0,0,4,0,0,0,0,0,0,0,692,0,No
5,2,5,0,0,4,0,0,0,0,0,0,0,1131,0,No
5,4,5,0,0,4,0,0,0,0,0,0,0,1131,0,No
8,10,53,0,0,9,0,0,0,0,0,0,0,875,2,Yes
2,0,6,0,1,7,0,0,0,0,0,0,0,1088,2,No
8,2,12,0,0,4,0,0,0,0,0,0,0,1131,0,Yes
5,2,7,0,0,4,0,0,0,0,0,0,0,1120,0,No
5,2,7,0,0,4,0,0,0,0,0,0,0,1120,0,No
16,16,107,2,0,7,1,1,0,0,1,2,2,1131,11,Yes
5,3,9,0,0,4,0,0,0,0,0,0,0,1120,1,No
4,6,9,0,0,5,0,0,0,0,0,0,0,1120,0,No
2,3,5,0,1,7,0,0,0,0,0,0,0,1088,2,No
5,2,7,0,0,4,0,0,0,0,0,0,0,1120,0,No
5,7,8,0,0,4,0,0,0,0,0,0,0,1120,0,No
6,5,9,0,0,4,0,0,0,0,0,0,0,1120,0,No
5,4,8,0,0,4,0,0,0,0,0,0,0,494,0,No
5,6,7,0,0,5,0,0,0,0,0,0,0,1055,0,No
4,3,4,0,0,4,0,0,0,0,0,0,0,588,0,No
8,6,14,0,0,4,0,0,0,0,0,0,0,661,0,No
7,3,10,0,0,4,0,0,0,0,0,0,0,486,0,Yes
8,4,12,0,0,4,0,0,0,0,0,0,0,486,0,No
6,14,23,0,0,7,0,0,0,0,0,0,0,1076,0,No
21,15,45,0,0,7,0,0,0,0,0,0,0,1120,0,Yes
5,7,8,0,0,4,0,0,0,0,0,0,0,1120,0,No
11,6,21,0,0,5,0,0,0,0,0,0,0,1120,0,Yes
9,7,14,0,0,4,0,0,0,0,0,0,0,1120,0,No
15,11,32,0,0,9,0,0,0,0,0,0,0,875,0,Yes
4,3,4,0,0,4,0,0,0,0,0,0,0,588,0,No
5,2,7,0,0,4,0,0,0,0,0,0,0,1120,0,No
5,7,8,0,0,4,0,0,0,0,0,0,0,1120,0,No
2,0,67,0,0,2,0,0,0,0,0,0,0,332,7,No
2,2,2,0,0,4,0,0,0,0,0,0,0,1102,0,No
1,2,2,0,0,5,0,0,0,0,0,0,0,1131,0,No
1,3,6,0,0,6,0,0,0,0,0,0,0,1131,0,No
1,2,2,0,0,5,0,0,0,0,0,0,0,1102,0,No
0,1,0,0,0,5,0,0,0,0,0,0,0,1131,0,No
0,0,0,0,0,3,0,0,0,0,0,0,0,1131,0,No
1,1,1,0,0,3,0,0,0,0,0,0,0,1102,0,No
1,1,1,0,1,4,0,0,0,0,0,0,0,1131,0,No
0,0,0,0,0,4,0,0,0,0,0,0,0,927,0,No
2,2,8,0,1,5,0,0,0,0,0,0,0,927,2,No
0,0,0,0,0,4,0,0,0,0,0,0,0,927,0,No
2,4,11,0,1,5,0,0,0,0,0,0,0,927,3,No
0,0,0,0,0,4,0,0,0,0,0,0,0,927,0,No
2,3,3,0,1,3,0,0,0,0,0,0,0,228,3,No
0,0,0,0,0,4,0,0,0,0,0,0,0,927,0,No
2,2,5,0,1,5,0,0,0,0,0,0,0,927,2,No
1,0,2,0,0,4,0,0,0,0,0,0,0,927,0,No
0,0,0,0,0,4,0,0,0,0,0,0,0,927,0,No
4,5,19,0,1,7,0,0,0,0,0,0,0,927,3,No
4,1,7,0,1,5,0,0,0,0,0,0,0,927,0,No
0,0,0,0,0,4,0,0,0,0,0,0,0,692,0,No
2,2,7,0,1,5,0,0,0,0,0,0,0,588,1,No
0,0,0,0,0,4,0,0,0,0,0,0,0,927,0,No
2,9,21,0,2,6,0,0,0,0,0,0,0,661,3,No
0,0,0,0,0,4,0,0,0,0,0,0,0,692,0,No
2,4,10,0,1,5,0,0,0,0,0,0,0,927,2,No
0,0,0,0,0,4,0,0,0,0,0,0,0,692,0,No
2,3,6,0,1,5,0,0,0,0,0,0,0,692,2,No
0,0,0,0,0,4,0,0,0,0,0,0,0,692,0,No
2,2,8,0,1,8,0,0,0,0,0,0,0,692,2,No
0,0,0,0,0,4,0,0,0,0,0,0,0,927,0,No
2,3,9,0,1,5,0,0,0,0,0,0,0,927,2,No
0,0,0,0,0,4,0,0,0,0,0,0,0,692,0,No
2,3,9,0,1,9,0,0,0,0,0,0,0,686,1,No
0,0,0,0,0,4,0,0,0,0,0,0,0,927,0,No
2,2,4,0,1,3,0,0,0,0,0,0,0,228,1,No
0,0,0,0,0,5,0,0,0,0,0,0,0,927,0,No
4,13,24,0,1,7,0,0,0,0,0,0,0,598,1,No
0,0,0,0,0,4,0,0,0,0,0,0,0,927,0,No
2,4,8,0,1,5,0,0,0,0,0,0,0,598,1,No
1,3,23,0,2,7,0,0,0,0,0,0,0,591,0,No
0,0,0,0,0,4,0,0,0,0,0,0,0,1092,0,No
12,2,58,0,0,7,0,0,0,0,0,0,0,648,0,No
0,0,0,0,0,4,0,0,0,0,0,0,0,1092,0,No
0,0,0,0,0,5,0,0,0,0,0,0,0,1092,0,No
1,2,1,0,0,4,0,0,0,0,0,0,0,661,1,No
1,7,18,0,0,5,0,0,0,0,0,0,0,661,1,No
0,0,0,0,0,1,0,0,0,0,0,0,0,230,1,No
1,1,1,0,1,6,0,0,0,0,0,0,0,591,0,No
17,4,17,0,0,3,0,0,0,0,0,0,0,144,0,No
4,3,4,0,0,4,0,0,0,0,0,0,0,175,0,No
2,2,2,0,0,5,0,0,0,0,0,0,0,692,2,No
2,2,2,0,0,5,0,0,0,0,0,0,0,1092,0,No
16,1,46,0,0,5,0,0,0,0,0,0,0,1046,0,Yes
1,0,1,0,0,4,0,0,0,0,0,0,0,1131,0,No
1,1,1,0,0,4,0,0,0,0,0,0,0,483,0,No
4,2,4,0,0,2,0,0,0,0,0,0,0,231,0,No
0,0,0,0,0,6,0,0,0,0,0,0,0,1092,0,No
10,21,61,0,1,5,0,0,0,0,0,0,0,231,10,No
11,0,21,0,0,2,0,0,0,0,0,0,0,138,2,No
22,10,97,0,0,8,0,0,0,0,0,0,0,1004,40,No
1,4,3,0,0,4,0,0,0,0,0,0,0,209,0,No
2,7,9,0,1,3,0,0,0,0,0,0,0,187,0,Yes
2,5,10,0,0,3,0,0,0,0,0,0,0,231,1,No
20,26,55,0,5,9,0,0,0,0,0,0,0,1069,5,No
0,0,0,0,0,3,0,0,0,0,0,0,0,1092,0,No
4,4,7,0,0,4,0,0,0,0,0,0,0,684,1,Yes
2,2,5,0,0,3,0,0,0,0,0,0,0,692,2,Yes
3,5,12,0,0,4,0,0,0,0,0,0,0,560,1,No
0,0,0,0,0,3,0,0,0,0,0,0,0,1092,0,No
4,5,5,0,1,4,0,0,0,0,0,0,0,692,0,No
0,0,0,0,0,4,0,0,0,0,0,0,0,692,0,No
2,12,11,0,0,4,0,0,0,0,0,0,0,486,1,No
0,0,0,0,0,3,0,0,0,0,0,0,0,692,1,No
2,1,2,0,0,5,0,0,0,0,0,0,0,486,0,No
0,1,0,0,0,4,0,0,0,0,0,0,0,692,0,No
1,2,10,2,1,2,1,1,0,0,1,2,3,461,0,No
6,22,44,0,2,5,0,0,0,0,0,0,0,692,5,Yes
4,11,15,0,0,4,0,0,0,0,0,0,0,1131,6,No
2,7,3,0,0,4,0,0,0,0,0,0,0,910,0,No
9,15,17,0,2,7,0,0,0,0,0,0,0,1056,2,No
13,22,36,0,2,9,0,0,0,0,0,0,0,1071,4,No
5,13,11,0,1,6,0,0,0,0,0,0,0,1083,0,No
10,14,21,0,1,6,0,0,0,0,0,0,0,853,4,No
6,9,10,0,1,6,0,0,0,0,0,0,0,588,3,No
15,18,24,0,3,7,0,0,0,0,0,0,0,648,2,Yes
16,21,40,0,1,7,0,0,0,0,0,0,0,486,7,Yes
9,30,30,7,2,8,6,6,5,5,1,1,1,1069,1,No
11,27,28,0,1,7,0,0,0,0,0,0,0,1060,0,Yes
5,13,11,0,1,6,0,0,0,0,0,0,0,1088,0,No
18,30,53,0,1,7,0,0,0,0,0,0,0,965,7,Yes
1,0,1,0,0,4,0,0,0,0,0,0,0,1131,0,No
39,32,67,0,3,8,0,0,0,0,0,0,0,1098,9,Yes
8,13,15,0,0,7,0,0,0,0,0,0,0,578,0,No
5,13,11,0,1,7,0,0,0,0,0,0,0,766,0,No
9,9,9,0,0,5,0,0,0,0,0,0,0,581,0,No
14,38,152,0,2,7,0,0,0,0,0,0,0,1059,9,No
2,2,2,0,0,4,0,0,0,0,0,0,0,1056,0,No
4,9,31,0,0,6,0,0,0,0,0,0,0,1071,0,No
4,6,7,0,0,4,0,0,0,0,0,0,0,1083,0,No
3,2,3,0,0,5,0,0,0,0,0,0,0,588,0,No
3,15,29,0,0,5,0,0,0,0,0,0,0,647,0,Yes
7,11,23,0,0,5,0,0,0,0,0,0,0,486,1,No
13,23,57,0,2,6,0,0,0,0,0,0,0,1069,0,No
6,25,54,0,1,6,0,0,0,0,0,0,0,1081,5,No
4,10,9,0,0,4,0,0,0,0,0,0,0,1083,0,No
7,25,50,0,0,8,0,0,0,0,0,0,0,969,1,Yes
8,0,10,0,0,4,0,0,0,0,0,0,0,1098,0,No
12,32,55,46,3,10,17,17,-12,15,2,6,11,1081,6,No
6,8,10,0,0,6,0,0,0,0,0,0,0,578,0,No
4,2,4,0,0,5,0,0,0,0,0,0,0,766,0,No
3,0,18,0,1,3,0,0,0,0,0,0,0,143,1,No
9,12,36,0,1,5,0,0,0,0,0,0,0,143,1,No
5,0,5,0,0,4,0,0,0,0,0,0,0,1067,1,No
2,2,4,0,0,4,0,0,0,0,0,0,0,280,0,No
6,8,13,38,2,7,7,7,-24,0,1,4,9,907,2,No
1,1,3,0,0,1,0,0,0,0,0,0,0,69,0,No
1,7,9,10,2,4,2,2,-6,0,1,4,9,907,0,No
10,8,10,0,1,4,0,0,0,0,0,0,0,143,0,No
14,10,16,0,0,5,0,0,0,0,0,0,0,142,0,Yes
1,0,1,0,0,6,0,0,0,0,0,0,0,1131,0,No
32,0,32,0,0,3,0,0,0,0,0,0,0,143,0,No
2,4,2,0,0,5,0,0,0,0,0,0,0,1131,0,No
4,6,16,0,0,3,0,0,0,0,0,0,0,158,2,No
6,4,6,0,0,2,0,0,0,0,0,0,0,137,0,Yes
8,10,22,0,1,4,0,0,0,0,0,0,0,138,0,Yes
14,9,15,0,0,3,0,0,0,0,0,0,0,137,0,Yes
11,10,11,0,0,5,0,0,0,0,0,0,0,142,0,No
14,7,14,0,0,2,0,0,0,0,0,0,0,136,0,Yes
6,11,21,0,0,4,0,0,0,0,0,0,0,139,0,No
16,17,24,0,0,5,0,0,0,0,0,0,0,132,0,Yes
7,5,10,0,0,2,0,0,0,0,0,0,0,137,0,Yes
26,10,26,0,1,4,0,0,0,0,0,0,0,133,0,Yes
5,4,5,0,1,6,0,0,0,0,0,0,0,1131,0,No
4,5,10,0,0,1,0,0,0,0,0,0,0,130,1,No
6,2,6,0,0,7,0,0,0,0,0,0,0,567,3,No
6,2,6,0,0,7,0,0,0,0,0,0,0,567,6,No
1,1,1,0,1,6,0,0,0,0,0,0,0,1092,0,No
15,3,20,0,0,6,0,0,0,0,0,0,0,584,0,No
7,22,27,0,1,4,0,0,0,0,0,0,0,168,0,No
6,23,67,8,2,6,6,6,4,4,1,1,1,230,1,No
27,51,131,2,5,9,1,1,0,0,1,2,2,692,15,Yes
3,0,3,0,0,3,0,0,0,0,0,0,0,1131,0,No
33,48,142,0,1,5,0,0,0,0,0,0,0,1059,23,Yes
10,1,41,0,0,7,0,0,0,0,0,0,0,626,8,No
5,4,57,0,3,7,0,0,0,0,0,0,0,515,6,No
3,0,38,0,0,1,0,0,0,0,0,0,0,68,9,No
13,1,16,0,2,1,0,0,0,0,0,0,0,102,0,No
8,1,18,0,0,5,0,0,0,0,0,0,0,830,1,No
4,0,8,0,0,2,0,0,0,0,0,0,0,166,4,No
0,0,0,0,0,5,0,0,0,0,0,0,0,1092,0,No
7,5,37,0,1,4,0,0,0,0,0,0,0,789,11,No
9,26,97,3,2,5,1,1,-1,0,1,3,4,466,8,Yes
4,1,16,0,1,4,0,0,0,0,0,0,0,280,0,No
1,0,2,24,0,5,12,12,0,0,1,3,4,1092,1,No
4,10,20,0,0,4,0,0,0,0,0,0,0,692,0,No
1,0,5,0,1,1,0,0,0,0,0,0,0,75,0,No
5,1,15,0,1,2,0,0,0,0,0,0,0,117,0,No
6,1,6,0,1,2,0,0,0,0,0,0,0,117,0,No
5,0,5,0,0,4,0,0,0,0,0,0,0,1131,0,No
2,1,4,0,0,4,0,0,0,0,0,0,0,563,0,No
14,0,18,0,1,5,0,0,0,0,0,0,0,515,0,No
2,0,6,0,0,4,0,0,0,0,0,0,0,515,1,No
3,2,4,0,1,5,0,0,0,0,0,0,0,747,3,No
8,3,8,0,1,4,0,0,0,0,0,0,0,209,0,No
0,1,0,0,1,5,0,0,0,0,0,0,0,692,0,No
3,0,3,0,1,6,0,0,0,0,0,0,0,1092,0,No
9,1,9,0,1,4,0,0,0,0,0,0,0,581,0,No
1,8,3,0,1,4,0,0,0,0,0,0,0,147,2,No
0,0,0,0,0,3,0,0,0,0,0,0,0,1092,0,No
5,9,5,0,0,4,0,0,0,0,0,0,0,209,0,No
11,11,11,0,0,3,0,0,0,0,0,0,0,209,0,No
4,7,4,0,0,3,0,0,0,0,0,0,0,209,0,No
13,9,13,0,1,8,0,0,0,0,0,0,0,599,0,No
15,11,19,0,4,7,0,0,0,0,0,0,0,616,0,No
10,7,10,0,1,7,0,0,0,0,0,0,0,616,1,No
26,15,82,0,4,7,0,0,0,0,0,0,0,605,15,No
3,1,5,0,1,7,0,0,0,0,0,0,0,605,3,No
1,1,1,0,0,3,0,0,0,0,0,0,0,692,0,No
8,4,12,0,0,5,0,0,0,0,0,0,0,593,1,No
17,2,26,0,0,5,0,0,0,0,0,0,0,593,1,No
1,0,1,0,0,3,0,0,0,0,0,0,0,692,0,No
4,0,4,0,0,3,0,0,0,0,0,0,0,692,0,No
11,4,14,0,0,5,0,0,0,0,0,0,0,593,0,No
21,7,39,0,0,5,0,0,0,0,0,0,0,593,1,Yes
2,3,2,0,0,3,0,0,0,0,0,0,0,605,0,No
1,1,1,0,1,4,0,0,0,0,0,0,0,692,0,No
1,3,1,0,0,5,0,0,0,0,0,0,0,605,0,No
1,2,2,0,1,4,0,0,0,0,0,0,0,605,0,No
1,2,1,0,0,3,0,0,0,0,0,0,0,605,0,No
1,0,1,0,0,3,0,0,0,0,0,0,0,692,1,No
1,0,1,0,0,3,0,0,0,0,0,0,0,692,1,No
1,4,1,0,0,5,0,0,0,0,0,0,0,605,0,No
2,0,6,0,0,3,0,0,0,0,0,0,0,577,2,No
6,0,19,0,1,3,0,0,0,0,0,0,0,577,1,No
3,0,9,0,0,1,0,0,0,0,0,0,0,106,5,No
2,0,9,0,1,3,0,0,0,0,0,0,0,577,2,No
5,0,17,0,0,3,0,0,0,0,0,0,0,577,1,No
1,0,10,0,0,1,0,0,0,0,0,0,0,216,5,No
4,0,5,0,0,2,0,0,0,0,0,0,0,169,1,No
1,0,2,0,0,4,0,0,0,0,0,0,0,1162,0,No
2,0,2,0,0,4,0,0,0,0,0,0,0,538,0,No
3,4,16,0,1,3,0,0,0,0,0,0,0,170,4,No
8,6,9,0,2,2,0,0,0,0,0,0,0,189,0,No
13,8,17,0,0,3,0,0,0,0,0,0,0,189,0,No
2,3,2,0,0,4,0,0,0,0,0,0,0,1162,0,No
4,5,14,0,0,2,0,0,0,0,0,0,0,189,0,No
5,3,5,0,0,3,0,0,0,0,0,0,0,184,0,No
9,8,24,0,1,4,0,0,0,0,0,0,0,185,0,No
12,6,13,0,2,3,0,0,0,0,0,0,0,188,0,No
10,9,12,0,1,3,0,0,0,0,0,0,0,188,0,No
13,5,13,0,0,2,0,0,0,0,0,0,0,190,0,No
6,8,13,0,1,3,0,0,0,0,0,0,0,184,0,No
1,0,1,0,0,4,0,0,0,0,0,0,0,1162,0,No
4,2,8,0,1,5,0,0,0,0,0,0,0,1162,0,No
15,15,35,0,2,4,0,0,0,0,0,0,0,185,1,No
6,3,9,0,0,3,0,0,0,0,0,0,0,183,0,No
25,8,25,0,1,4,0,0,0,0,0,0,0,190,0,No
5,3,5,0,1,1,0,0,0,0,0,0,0,146,0,No
3,3,3,0,0,5,0,0,0,0,0,0,0,1162,0,No
3,0,3,0,0,4,0,0,0,0,0,0,0,1162,0,No
0,0,0,0,0,6,0,0,0,0,0,0,0,723,1,No
0,0,0,0,0,5,0,0,0,0,0,0,0,723,0,No
0,1,0,0,0,4,0,0,0,0,0,0,0,723,0,No
0,0,0,0,0,4,0,0,0,0,0,0,0,723,0,No
35,1,42,0,0,5,0,0,0,0,0,0,0,1078,0,No
11,1,12,0,0,4,0,0,0,0,0,0,0,1078,0,No
11,0,12,0,0,5,0,0,0,0,0,0,0,1162,2,No
2,1,2,5,0,4,5,5,5,5,1,1,2,1162,0,No
25,0,38,10,0,4,10,10,10,10,1,1,2,1098,0,No
15,1,26,0,0,5,0,0,0,0,0,0,0,1078,2,No
2,1,2,0,0,5,0,0,0,0,0,0,0,723,0,No
1,0,1,0,0,4,0,0,0,0,0,0,0,517,0,No
10,3,10,257,0,5,126,126,-5,0,2,3,9,517,0,No
12,1,14,0,0,3,0,0,0,0,0,0,0,492,0,No
10,3,10,10,0,5,5,5,0,0,2,3,9,517,0,No
0,0,0,0,0,4,0,0,0,0,0,0,0,1123,1,No
7,1,11,0,0,4,0,0,0,0,0,0,0,1009,0,No
3,1,3,0,0,4,0,0,0,0,0,0,0,1119,0,No
5,1,6,0,0,4,0,0,0,0,0,0,0,1162,1,No
29,1,51,0,0,5,0,0,0,0,0,0,0,1009,1,No
3,1,3,0,0,5,0,0,0,0,0,0,0,1162,0,No
1,0,1,0,0,4,0,0,0,0,0,0,0,1123,0,No
8,3,8,0,1,3,0,0,0,0,0,0,0,189,0,No
13,7,13,0,1,3,0,0,0,0,0,0,0,189,0,No
2,1,2,0,0,4,0,0,0,0,0,0,0,1162,0,No
0,0,0,0,0,5,0,0,0,0,0,0,0,1123,0,No
4,2,4,0,0,2,0,0,0,0,0,0,0,189,1,No
5,1,5,0,0,4,0,0,0,0,0,0,0,184,0,No
7,3,7,0,1,3,0,0,0,0,0,0,0,185,0,Yes
12,3,12,0,1,3,0,0,0,0,0,0,0,188,0,No
2,0,2,0,0,5,0,0,0,0,0,0,0,1162,0,No
10,6,10,0,0,3,0,0,0,0,0,0,0,188,0,No
13,3,13,0,0,3,0,0,0,0,0,0,0,190,0,Yes
5,3,5,0,0,3,0,0,0,0,0,0,0,184,0,No
14,8,14,0,0,4,0,0,0,0,0,0,0,185,0,Yes
6,1,6,0,0,3,0,0,0,0,0,0,0,184,1,No
25,6,25,0,1,5,0,0,0,0,0,0,0,190,0,Yes
5,2,5,0,1,5,0,0,0,0,0,0,0,1162,0,No
3,2,3,0,0,3,0,0,0,0,0,0,0,189,0,No
20,0,29,0,0,6,0,0,0,0,0,0,0,1129,1,No
10,1,14,0,0,4,0,0,0,0,0,0,0,1000,0,No
2,1,2,0,0,4,0,0,0,0,0,0,0,1162,0,No
2,2,2,0,0,4,0,0,0,0,0,0,0,1162,0,No
8,1,13,0,0,5,0,0,0,0,0,0,0,1162,2,No
6,1,8,0,0,2,0,0,0,0,0,0,0,121,0,No
9,1,16,0,0,2,0,0,0,0,0,0,0,121,1,No
4,1,4,0,0,4,0,0,0,0,0,0,0,1162,0,No
14,2,14,0,0,4,0,0,0,0,0,0,0,1100,0,No
3,1,3,0,0,4,0,0,0,0,0,0,0,1162,2,No
23,3,31,0,0,7,0,0,0,0,0,0,0,1102,2,No
5,1,7,0,1,5,0,0,0,0,0,0,0,538,0,No
3,1,3,0,0,5,0,0,0,0,0,0,0,1162,0,No
2,0,2,0,0,4,0,0,0,0,0,0,0,1119,0,No
3,1,3,0,0,1,0,0,0,0,0,0,0,190,0,No
3,1,3,0,0,4,0,0,0,0,0,0,0,1162,0,No
4,2,4,0,0,4,0,0,0,0,0,0,0,1162,0,No
3,1,3,0,0,4,0,0,0,0,0,0,0,1162,0,No
16,3,16,0,0,5,0,0,0,0,0,0,0,1107,0,No
11,2,27,0,1,4,0,0,0,0,0,0,0,242,2,No
12,0,12,0,0,5,0,0,0,0,0,0,0,1162,2,No
24,4,27,0,0,6,0,0,0,0,0,0,0,619,0,No
16,1,18,0,0,5,0,0,0,0,0,0,0,612,1,No
2,2,2,0,0,4,0,0,0,0,0,0,0,1162,0,No
6,2,6,0,0,4,0,0,0,0,0,0,0,1162,0,No
3,1,3,0,0,1,0,0,0,0,0,0,0,190,0,No
6,1,9,0,0,2,0,0,0,0,0,0,0,169,1,No
8,2,8,0,0,5,0,0,0,0,0,0,0,514,0,No
18,3,18,0,0,4,0,0,0,0,0,0,0,1000,0,No
2,0,2,0,0,4,0,0,0,0,0,0,0,723,0,No
24,4,32,0,0,5,0,0,0,0,0,0,0,517,0,No
42,4,42,0,1,4,0,0,0,0,0,0,0,1098,0,No
30,0,37,0,0,5,0,0,0,0,0,0,0,1091,1,No
12,0,16,0,0,5,0,0,0,0,0,0,0,1162,0,No
18,1,19,0,0,6,0,0,0,0,0,0,0,1162,0,No
3,1,3,0,0,1,0,0,0,0,0,0,0,190,0,No
2,2,2,0,0,4,0,0,0,0,0,0,0,1162,0,No
18,0,18,0,0,4,0,0,0,0,0,0,0,723,0,No
2,0,2,0,0,4,0,0,0,0,0,0,0,1000,0,No
12,1,16,0,0,6,0,0,0,0,0,0,0,1000,0,No
1,0,1,0,0,5,0,0,0,0,0,0,0,1162,0,No
10,3,13,0,0,5,0,0,0,0,0,0,0,609,1,No
25,0,31,0,0,5,0,0,0,0,0,0,0,1129,1,No
3,1,3,0,0,4,0,0,0,0,0,0,0,1162,0,No
2,0,2,0,0,5,0,0,0,0,0,0,0,1162,0,No
4,1,4,0,0,4,0,0,0,0,0,0,0,723,0,No
20,2,21,0,0,4,0,0,0,0,0,0,0,625,0,No
20,1,27,0,0,6,0,0,0,0,0,0,0,625,2,No
0,1,0,0,0,4,0,0,0,0,0,0,0,1123,1,No
20,1,24,0,0,5,0,0,0,0,0,0,0,1123,0,No
1,0,1,0,0,5,0,0,0,0,0,0,0,1123,1,No
2,0,4,0,0,4,0,0,0,0,0,0,0,1162,3,No
2,0,2,0,0,5,0,0,0,0,0,0,0,1162,2,No
5,3,9,0,0,2,0,0,0,0,0,0,0,476,0,No
2,0,2,0,0,5,0,0,0,0,0,0,0,1123,2,No
1,0,1,0,0,6,0,0,0,0,0,0,0,1123,1,No
15,1,17,0,0,5,0,0,0,0,0,0,0,1162,1,No
7,1,7,0,0,4,0,0,0,0,0,0,0,1162,1,No
1,0,1,0,0,4,0,0,0,0,0,0,0,1123,0,No
1,0,1,0,0,5,0,0,0,0,0,0,0,1123,1,No
2,0,2,0,1,3,0,0,0,0,0,0,0,449,1,Yes
5,0,17,0,2,7,0,0,0,0,0,0,0,1123,9,No
1,0,1,0,0,5,0,0,0,0,0,0,0,1123,1,No
0,0,0,0,1,2,0,0,0,0,0,0,0,143,0,No
48,1,52,0,0,6,0,0,0,0,0,0,0,692,0,No
2,0,2,0,0,5,0,0,0,0,0,0,0,1123,1,No
0,0,0,0,0,4,0,0,0,0,0,0,0,1123,0,No
2,0,3,0,0,5,0,0,0,0,0,0,0,1123,1,No
0,0,0,0,0,4,0,0,0,0,0,0,0,1123,0,No
1,0,1,0,0,5,0,0,0,0,0,0,0,1123,1,No
1,0,1,0,0,5,0,0,0,0,0,0,0,1123,1,No
2,4,2,0,1,4,0,0,0,0,0,0,0,723,1,No
10,2,11,0,0,8,0,0,0,0,0,0,0,1123,0,No
3,0,6,0,1,4,0,0,0,0,0,0,0,1107,1,Yes
2,0,9,0,0,4,0,0,0,0,0,0,0,525,0,No
1,0,1,0,0,4,0,0,0,0,0,0,0,1123,0,No
2,0,5,0,0,5,0,0,0,0,0,0,0,723,3,No
0,0,0,0,0,4,0,0,0,0,0,0,0,1123,0,No
1,0,1,0,0,5,0,0,0,0,0,0,0,723,1,No
0,0,0,0,0,4,0,0,0,0,0,0,0,723,0,No
0,0,0,0,0,4,0,0,0,0,0,0,0,1123,0,No
11,11,53,0,0,6,0,0,0,0,0,0,0,605,0,No
17,10,34,0,1,4,0,0,0,0,0,0,0,174,1,No
7,1,14,0,2,6,0,0,0,0,0,0,0,1107,0,No
1,1,11,0,2,4,0,0,0,0,0,0,0,1107,2,No
8,1,8,0,0,5,0,0,0,0,0,0,0,1107,0,No
8,14,18,0,0,6,0,0,0,0,0,0,0,1123,0,No
1,1,8,0,0,3,0,0,0,0,0,0,0,986,1,No
13,31,14,0,2,7,0,0,0,0,0,0,0,1123,0,No
4,4,10,0,1,6,0,0,0,0,0,0,0,615,2,Yes
3,0,3,0,0,2,0,0,0,0,0,0,0,324,0,No
0,0,0,0,0,2,0,0,0,0,0,0,0,55,0,No
0,0,0,0,0,4,0,0,0,0,0,0,0,1123,0,No
3,1,4,0,0,5,0,0,0,0,0,0,0,723,2,No
6,1,10,0,0,4,0,0,0,0,0,0,0,504,0,No
3,0,3,0,0,2,0,0,0,0,0,0,0,161,1,No
2,0,2,0,0,5,0,0,0,0,0,0,0,723,0,No
10,0,21,0,2,6,0,0,0,0,0,0,0,877,3,No
7,2,12,0,0,4,0,0,0,0,0,0,0,882,1,No
1,1,4,0,0,3,0,0,0,0,0,0,0,1162,1,No
1,6,3,0,1,4,0,0,0,0,0,0,0,792,0,No
13,2,13,0,0,5,0,0,0,0,0,0,0,1014,2,No
2,0,3,0,0,3,0,0,0,0,0,0,0,1162,0,No
7,0,12,0,0,5,0,0,0,0,0,0,0,722,1,No
2,3,12,0,2,6,0,0,0,0,0,0,0,840,2,No
2,0,7,0,1,5,0,0,0,0,0,0,0,842,0,No
7,0,7,0,0,3,0,0,0,0,0,0,0,1162,0,No
9,6,34,0,0,4,0,0,0,0,0,0,0,505,2,No
2,0,8,0,0,6,0,0,0,0,0,0,0,951,0,No
8,3,28,0,0,4,0,0,0,0,0,0,0,504,2,No
2,0,4,0,0,1,0,0,0,0,0,0,0,161,0,No
4,8,4,0,0,4,0,0,0,0,0,0,0,1123,0,No
3,7,8,0,1,6,0,0,0,0,0,0,0,722,1,No
2,2,2,0,0,5,0,0,0,0,0,0,0,792,0,No
10,12,29,0,1,5,0,0,0,0,0,0,0,622,2,No
1,1,1,0,1,5,0,0,0,0,0,0,0,1123,0,No
9,4,16,0,0,7,0,0,0,0,0,0,0,1123,2,No
6,6,7,0,0,2,0,0,0,0,0,0,0,121,1,No
4,2,4,0,0,3,0,0,0,0,0,0,0,121,0,No
36,19,54,1,1,7,0,0,-1,0,1,6,10,1123,16,No
4,4,7,0,1,6,0,0,0,0,0,0,0,1017,4,No
3,5,13,0,0,2,0,0,0,0,0,0,0,127,0,No
13,16,42,0,2,7,0,0,0,0,0,0,0,1098,3,No
4,7,12,0,2,6,0,0,0,0,0,0,0,1098,1,No
11,3,16,0,3,6,0,0,0,0,0,0,0,1071,1,No
2,8,5,0,2,5,0,0,0,0,0,0,0,517,0,No
0,0,0,0,0,3,0,0,0,0,0,0,0,1123,0,No
0,0,0,0,0,3,0,0,0,0,0,0,0,723,0,No
0,0,0,0,0,3,0,0,0,0,0,0,0,1123,0,No
0,1,0,0,0,2,0,0,0,0,0,0,0,164,2,No
11,10,15,0,2,7,0,0,0,0,0,0,0,1122,9,No
0,2,0,0,0,5,0,0,0,0,0,0,0,1121,1,No
4,5,4,0,1,6,0,0,0,0,0,0,0,1071,2,No
7,12,17,0,3,7,0,0,0,0,0,0,0,612,3,No
0,3,0,0,1,6,0,0,0,0,0,0,0,612,0,No
7,14,27,0,2,7,0,0,0,0,0,0,0,622,6,No
0,2,0,0,1,4,0,0,0,0,0,0,0,792,0,No
3,3,3,0,0,4,0,0,0,0,0,0,0,504,0,No
39,19,75,0,2,7,0,0,0,0,0,0,0,504,3,No
11,17,70,0,3,6,0,0,0,0,0,0,0,492,3,No
26,16,41,28,3,8,12,12,-4,0,1,6,10,1123,5,Yes
5,8,16,0,8,7,0,0,0,0,0,0,0,1092,3,No
35,13,43,0,3,7,0,0,0,0,0,0,0,1123,15,Yes
11,13,33,0,1,5,0,0,0,0,0,0,0,505,3,No
5,6,9,0,3,7,0,0,0,0,0,0,0,1071,1,No
4,5,6,0,0,4,0,0,0,0,0,0,0,255,1,No
1,2,1,0,0,5,0,0,0,0,0,0,0,792,0,No
8,9,14,0,1,7,0,0,0,0,0,0,0,1123,5,No
1,2,1,0,0,6,0,0,0,0,0,0,0,722,0,No
19,14,35,0,2,7,0,0,0,0,0,0,0,1116,2,No
10,11,41,0,2,8,0,0,0,0,0,0,0,1098,6,No
5,5,8,0,1,6,0,0,0,0,0,0,0,531,2,No
1,5,2,0,1,6,0,0,0,0,0,0,0,722,0,No
11,14,19,0,3,7,0,0,0,0,0,0,0,987,2,No
11,12,16,0,1,7,0,0,0,0,0,0,0,1123,0,Yes
24,13,37,0,1,7,0,0,0,0,0,0,0,622,8,No
10,8,18,0,3,7,0,0,0,0,0,0,0,1071,4,No
3,5,5,0,0,4,0,0,0,0,0,0,0,255,1,No
2,5,11,0,0,5,0,0,0,0,0,0,0,517,3,No
2,2,2,0,0,5,0,0,0,0,0,0,0,792,0,No
7,10,11,0,3,7,0,0,0,0,0,0,0,1123,4,No
2,1,2,0,0,5,0,0,0,0,0,0,0,792,0,No
4,7,12,0,1,6,0,0,0,0,0,0,0,792,1,No
1,2,1,6,0,6,6,6,6,6,1,6,10,1123,0,No
12,15,51,0,1,3,0,0,0,0,0,0,0,203,0,No
17,9,23,0,4,7,0,0,0,0,0,0,0,615,1,No
0,3,0,0,0,2,0,0,0,0,0,0,0,55,0,No
0,3,0,0,0,5,0,0,0,0,0,0,0,517,0,No
8,8,9,0,0,3,0,0,0,0,0,0,0,121,1,Yes
8,19,38,0,1,7,0,0,0,0,0,0,0,707,2,No
9,8,13,0,2,6,0,0,0,0,0,0,0,790,0,No
2,0,2,0,0,4,0,0,0,0,0,0,0,1123,0,No
11,13,29,0,1,5,0,0,0,0,0,0,0,707,0,No
10,10,19,0,2,7,0,0,0,0,0,0,0,1123,6,No
15,15,23,0,3,7,0,0,0,0,0,0,0,673,3,No
14,15,33,0,1,7,0,0,0,0,0,0,0,679,1,No
11,12,20,0,2,7,0,0,0,0,0,0,0,1123,6,No
6,15,27,0,2,7,0,0,0,0,0,0,0,517,2,No
7,11,11,0,0,7,0,0,0,0,0,0,0,517,1,No
20,19,93,0,9,8,0,0,0,0,0,0,0,517,3,No
5,5,15,0,0,7,0,0,0,0,0,0,0,631,1,No
6,13,18,0,2,7,0,0,0,0,0,0,0,707,2,No
19,10,36,0,0,3,0,0,0,0,0,0,0,255,0,No
6,7,6,0,2,7,0,0,0,0,0,0,0,608,3,No
3,2,3,0,0,3,0,0,0,0,0,0,0,203,0,No
11,12,15,0,2,4,0,0,0,0,0,0,0,203,1,No
6,7,11,0,0,7,0,0,0,0,0,0,0,631,1,No
5,4,5,3,0,5,1,1,-1,0,1,6,10,608,5,No
1,7,1,3,2,6,1,1,-1,0,1,6,10,608,0,No
12,12,22,0,2,7,0,0,0,0,0,0,0,1123,6,No
14,3,28,0,0,3,0,0,0,0,0,0,0,203,4,No
3,6,4,0,2,5,0,0,0,0,0,0,0,255,0,No
10,15,24,0,0,6,0,0,0,0,0,0,0,517,5,No
16,14,26,0,2,7,0,0,0,0,0,0,0,1123,6,No
1,5,2,4,0,6,2,2,0,0,1,2,2,619,0,No
6,5,8,0,1,6,0,0,0,0,0,0,0,1123,1,No
14,21,32,0,5,4,0,0,0,0,0,0,0,203,2,No
10,11,24,0,2,6,0,0,0,0,0,0,0,790,0,No
7,6,7,0,1,6,0,0,0,0,0,0,0,1162,0,Yes
3,2,3,0,2,6,0,0,0,0,0,0,0,622,0,No
2,2,2,0,1,5,0,0,0,0,0,0,0,919,0,No
1,1,1,0,0,5,0,0,0,0,0,0,0,1162,0,No
6,2,6,0,0,6,0,0,0,0,0,0,0,1071,0,No
14,12,28,0,3,6,0,0,0,0,0,0,0,1098,1,No
2,0,2,0,0,4,0,0,0,0,0,0,0,1123,0,No
0,0,0,2,0,5,1,1,0,0,1,3,5,1123,1,No
7,8,9,0,0,6,0,0,0,0,0,0,0,1071,0,No
7,7,7,0,0,6,0,0,0,0,0,0,0,612,0,No
7,7,16,8,3,7,5,5,2,2,1,6,10,679,1,Yes
11,5,12,0,1,6,0,0,0,0,0,0,0,504,0,Yes
7,7,10,0,0,6,0,0,0,0,0,0,0,1092,0,No
11,10,11,0,0,7,0,0,0,0,0,0,0,1092,0,Yes
19,11,32,0,1,7,0,0,0,0,0,0,0,1162,0,No
17,13,23,0,0,8,0,0,0,0,0,0,0,987,0,Yes
5,5,5,0,0,8,0,0,0,0,0,0,0,605,0,No
14,13,16,0,1,7,0,0,0,0,0,0,0,1113,0,Yes
2,4,2,0,0,6,0,0,0,0,0,0,0,919,0,No
4,0,4,0,0,1,0,0,0,0,0,0,0,504,0,No
2,1,3,0,1,1,0,0,0,0,0,0,0,143,0,No
2,1,3,0,1,3,0,0,0,0,0,0,0,842,0,No
2,0,2,0,1,3,0,0,0,0,0,0,0,842,0,No
4,1,4,0,1,5,0,0,0,0,0,0,0,612,1,No
3,1,4,0,0,1,0,0,0,0,0,0,0,121,0,No
1,2,10,0,1,4,0,0,0,0,0,0,0,609,0,No
0,0,0,0,0,4,0,0,0,0,0,0,0,1123,0,No
0,0,0,0,0,4,0,0,0,0,0,0,0,1123,0,No
3,0,3,0,0,5,0,0,0,0,0,0,0,612,0,No
1,1,2,0,0,4,0,0,0,0,0,0,0,612,0,No
1,2,3,0,0,4,0,0,0,0,0,0,0,612,0,No
1,0,1,0,0,4,0,0,0,0,0,0,0,1123,0,No
3,0,3,0,1,5,0,0,0,0,0,0,0,1162,3,No
22,3,53,0,2,4,0,0,0,0,0,0,0,531,0,No
5,1,16,0,1,7,0,0,0,0,0,0,0,1071,1,No
2,0,2,0,0,3,0,0,0,0,0,0,0,881,0,No
5,1,5,0,2,7,0,0,0,0,0,0,0,1071,1,No
1,1,1,0,0,4,0,0,0,0,0,0,0,1071,0,No
3,1,3,0,1,5,0,0,0,0,0,0,0,679,0,No
2,1,3,0,0,4,0,0,0,0,0,0,0,1071,0,No
5,1,8,0,2,7,0,0,0,0,0,0,0,1071,2,No
1,0,1,0,0,4,0,0,0,0,0,0,0,1123,0,No
6,1,32,0,0,6,0,0,0,0,0,0,0,679,1,No
4,1,5,0,0,7,0,0,0,0,0,0,0,679,3,No
9,1,23,1,1,8,0,0,-1,0,1,3,5,679,6,No
19,0,35,0,2,6,0,0,0,0,0,0,0,679,1,No
0,0,0,0,0,3,0,0,0,0,0,0,0,1123,0,No
8,1,14,0,0,6,0,0,0,0,0,0,0,679,0,No
1,0,1,0,2,1,0,0,0,0,0,0,0,153,0,No
9,0,30,0,0,3,0,0,0,0,0,0,0,492,1,No
16,1,20,22,0,3,14,14,6,6,1,6,10,206,4,No
1,0,1,0,0,5,0,0,0,0,0,0,0,723,0,No
6,10,7,3,1,5,1,1,-1,0,1,6,10,1071,5,No
6,4,7,0,0,4,0,0,0,0,0,0,0,608,0,No
1,1,1,0,0,4,0,0,0,0,0,0,0,723,0,No
2,0,2,2,0,3,1,1,0,0,1,6,10,114,0,No
2,3,7,0,0,2,0,0,0,0,0,0,0,484,2,No
12,0,20,0,0,2,0,0,0,0,0,0,0,484,0,Yes
14,36,132,0,4,8,0,0,0,0,0,0,0,496,8,Yes
11,8,86,0,1,5,0,0,0,0,0,0,0,261,1,No
2,0,14,0,0,3,0,0,0,0,0,0,0,1029,8,No
7,11,13,0,2,7,0,0,0,0,0,0,0,1038,3,No
10,23,37,0,0,1,0,0,0,0,0,0,0,100,10,No
2,7,20,14,2,5,5,5,-4,0,1,3,7,470,3,No
13,16,34,51,3,8,27,20,3,15,2,5,9,715,8,No
1,4,9,0,0,5,0,0,0,0,0,0,0,525,0,Yes
2,2,3,0,1,6,0,0,0,0,0,0,0,778,0,No
2,1,2,0,1,5,0,0,0,0,0,0,0,723,0,No
5,3,11,0,1,3,0,0,0,0,0,0,0,178,1,No
4,10,27,0,1,6,0,0,0,0,0,0,0,612,0,No
6,23,25,3,0,7,0,0,-3,0,2,4,8,612,1,Yes
13,3,18,0,0,6,0,0,0,0,0,0,0,1116,0,No
2,0,2,0,0,3,0,0,0,0,0,0,0,1123,0,No
17,4,48,0,2,5,0,0,0,0,0,0,0,1151,3,No
25,0,42,0,1,4,0,0,0,0,0,0,0,1116,0,No
6,0,15,0,2,5,0,0,0,0,0,0,0,1162,1,No
6,2,6,0,0,6,0,0,0,0,0,0,0,1136,0,No
9,1,9,0,0,4,0,0,0,0,0,0,0,1119,1,No
8,0,13,0,0,5,0,0,0,0,0,0,0,517,0,No
12,1,19,0,0,2,0,0,0,0,0,0,0,242,2,No
17,2,24,0,0,5,0,0,0,0,0,0,0,1107,0,No
21,4,28,0,1,5,0,0,0,0,0,0,0,1149,3,Yes
8,0,10,0,0,5,0,0,0,0,0,0,0,797,0,No
8,1,8,0,0,5,0,0,0,0,0,0,0,1119,1,Yes
0,1,0,0,0,5,0,0,0,0,0,0,0,1116,0,No
23,4,30,0,0,5,0,0,0,0,0,0,0,1127,2,No
4,1,4,0,0,4,0,0,0,0,0,0,0,1151,0,No
44,7,49,0,0,6,0,0,0,0,0,0,0,1107,1,No
23,5,31,0,0,5,0,0,0,0,0,0,0,619,0,No
16,1,17,0,0,5,0,0,0,0,0,0,0,612,0,No
0,1,0,0,0,4,0,0,0,0,0,0,0,1116,0,No
6,4,6,0,2,5,0,0,0,0,0,0,0,692,0,No
18,5,18,0,0,5,0,0,0,0,0,0,0,1000,0,No
13,2,27,0,0,4,0,0,0,0,0,0,0,517,1,No
6,1,8,0,0,4,0,0,0,0,0,0,0,517,0,No
5,2,7,0,0,4,0,0,0,0,0,0,0,517,0,No
8,1,8,0,0,5,0,0,0,0,0,0,0,723,0,No
0,1,0,0,0,5,0,0,0,0,0,0,0,1116,0,No
19,4,21,0,0,7,0,0,0,0,0,0,0,723,0,No
4,0,4,0,0,3,0,0,0,0,0,0,0,1162,0,Yes
6,2,6,0,0,4,0,0,0,0,0,0,0,1151,0,No
5,0,10,0,0,4,0,0,0,0,0,0,0,1000,0,No
4,0,4,0,0,3,0,0,0,0,0,0,0,1000,0,No
8,4,11,0,0,4,0,0,0,0,0,0,0,609,0,No
11,4,19,0,0,5,0,0,0,0,0,0,0,1116,0,No
5,3,7,0,0,5,0,0,0,0,0,0,0,958,0,No
3,2,4,0,0,5,0,0,0,0,0,0,0,1162,0,No
4,3,6,0,0,5,0,0,0,0,0,0,0,1116,0,No
0,1,0,0,0,4,0,0,0,0,0,0,0,1116,0,No
0,1,0,0,0,4,0,0,0,0,0,0,0,1116,0,No
5,3,7,0,0,6,0,0,0,0,0,0,0,1116,0,No
0,1,0,0,0,4,0,0,0,0,0,0,0,1116,0,No
24,7,36,0,0,6,0,0,0,0,0,0,0,1086,0,No
0,0,0,0,0,3,0,0,0,0,0,0,0,1123,0,No
11,4,19,0,0,5,0,0,0,0,0,0,0,1116,0,No
5,3,7,0,0,5,0,0,0,0,0,0,0,958,0,No
3,2,4,0,0,5,0,0,0,0,0,0,0,1162,0,No
4,3,6,0,0,5,0,0,0,0,0,0,0,1116,0,No
0,1,0,0,0,4,0,0,0,0,0,0,0,1116,0,No
8,3,19,0,0,2,0,0,0,0,0,0,0,242,1,No
3,2,5,0,0,5,0,0,0,0,0,0,0,1162,0,No
0,1,0,0,0,4,0,0,0,0,0,0,0,1116,0,No
5,3,8,0,0,6,0,0,0,0,0,0,0,1116,0,No
0,1,0,0,0,4,0,0,0,0,0,0,0,1116,0,No
45,13,84,0,0,5,0,0,0,0,0,0,0,1116,0,No
54,11,94,0,2,8,0,0,0,0,0,0,0,1116,1,No
11,4,19,0,0,5,0,0,0,0,0,0,0,1116,0,No
5,3,7,0,0,5,0,0,0,0,0,0,0,958,0,No
3,2,4,0,0,5,0,0,0,0,0,0,0,1162,0,No
4,3,6,0,0,5,0,0,0,0,0,0,0,1116,0,No
0,2,0,0,0,4,0,0,0,0,0,0,0,1116,0,Yes
10,3,23,0,0,2,0,0,0,0,0,0,0,242,1,No
3,2,5,0,0,5,0,0,0,0,0,0,0,1162,0,No
0,2,0,0,0,4,0,0,0,0,0,0,0,1116,0,Yes
5,3,8,0,0,6,0,0,0,0,0,0,0,1116,0,No
0,2,0,0,0,4,0,0,0,0,0,0,0,1116,0,Yes
5,2,5,0,0,4,0,0,0,0,0,0,0,1162,0,No
5,2,5,0,0,4,0,0,0,0,0,0,0,1162,0,No
4,5,4,0,0,6,0,0,0,0,0,0,0,1162,0,No
4,3,4,0,0,6,0,0,0,0,0,0,0,1162,0,Yes
5,2,5,0,0,4,0,0,0,0,0,0,0,1162,0,No
4,2,4,0,0,4,0,0,0,0,0,0,0,1162,0,No
2,1,2,0,0,5,0,0,0,0,0,0,0,1123,0,No
4,1,4,0,0,3,0,0,0,0,0,0,0,1123,0,No
5,2,5,0,0,4,0,0,0,0,0,0,0,1162,0,No
5,4,5,0,0,4,0,0,0,0,0,0,0,1162,0,No
6,3,6,0,0,4,0,0,0,0,0,0,0,1162,0,No
5,3,5,0,0,4,0,0,0,0,0,0,0,1162,0,No
5,4,5,0,0,4,0,0,0,0,0,0,0,1162,0,No
1,0,1,0,0,4,0,0,0,0,0,0,0,1123,0,No
0,0,0,0,0,5,0,0,0,0,0,0,0,1123,0,No
4,2,4,0,0,4,0,0,0,0,0,0,0,723,0,No
8,5,8,0,1,4,0,0,0,0,0,0,0,1123,0,No
7,2,7,0,0,4,0,0,0,0,0,0,0,1162,0,Yes
7,3,7,0,0,4,0,0,0,0,0,0,0,1162,0,No
6,4,6,0,0,4,0,0,0,0,0,0,0,1162,0,No
17,8,17,0,0,6,0,0,0,0,0,0,0,1162,1,Yes
5,4,5,0,0,4,0,0,0,0,0,0,0,1162,0,No
10,3,10,0,0,4,0,0,0,0,0,0,0,1162,0,Yes
8,3,8,0,0,4,0,0,0,0,0,0,0,1162,0,No
13,5,13,0,0,6,0,0,0,0,0,0,0,1162,0,Yes
4,2,4,0,0,4,0,0,0,0,0,0,0,723,0,No
5,2,5,0,0,4,0,0,0,0,0,0,0,1162,0,No
5,4,5,0,0,4,0,0,0,0,0,0,0,1162,0,No
8,10,53,0,0,9,0,0,0,0,0,0,0,906,2,Yes
2,0,6,0,1,7,0,0,0,0,0,0,0,1119,2,Yes
8,2,12,0,0,4,0,0,0,0,0,0,0,1162,0,Yes
5,2,7,0,0,4,0,0,0,0,0,0,0,1151,0,No
5,2,7,0,0,4,0,0,0,0,0,0,0,1151,0,No
16,16,111,33,1,7,27,27,21,21,1,2,2,1162,11,Yes
5,3,9,0,0,4,0,0,0,0,0,0,0,1151,1,No
4,6,9,0,0,5,0,0,0,0,0,0,0,1151,0,No
2,3,5,0,1,7,0,0,0,0,0,0,0,1119,2,No
5,2,7,0,0,4,0,0,0,0,0,0,0,1151,0,No
5,7,8,0,0,4,0,0,0,0,0,0,0,1151,0,No
6,5,9,0,0,4,0,0,0,0,0,0,0,1151,0,No
5,4,8,0,0,4,0,0,0,0,0,0,0,525,0,No
5,6,7,0,0,5,0,0,0,0,0,0,0,1086,0,No
4,3,4,0,0,4,0,0,0,0,0,0,0,619,0,No
8,6,14,0,0,4,0,0,0,0,0,0,0,692,0,No
7,3,10,0,0,4,0,0,0,0,0,0,0,517,0,Yes
8,4,12,0,0,4,0,0,0,0,0,0,0,517,0,No
6,14,23,0,0,7,0,0,0,0,0,0,0,1107,0,No
21,15,45,0,0,7,0,0,0,0,0,0,0,1151,0,Yes
5,7,8,0,0,4,0,0,0,0,0,0,0,1151,0,No
11,6,21,0,0,5,0,0,0,0,0,0,0,1151,0,Yes
9,7,14,0,0,4,0,0,0,0,0,0,0,1151,0,No
15,11,32,0,0,9,0,0,0,0,0,0,0,906,0,Yes
4,3,4,0,0,4,0,0,0,0,0,0,0,619,0,No
5,2,7,0,0,4,0,0,0,0,0,0,0,1151,0,No
5,7,8,0,0,4,0,0,0,0,0,0,0,1151,0,No
2,0,67,0,0,2,0,0,0,0,0,0,0,363,7,No
2,2,2,0,0,4,0,0,0,0,0,0,0,1133,0,No
1,2,2,0,0,5,0,0,0,0,0,0,0,1162,0,No
1,3,6,0,0,6,0,0,0,0,0,0,0,1162,0,No
1,2,2,0,0,5,0,0,0,0,0,0,0,1133,0,Yes
0,1,0,0,0,5,0,0,0,0,0,0,0,1162,0,No
0,0,0,0,0,3,0,0,0,0,0,0,0,1162,0,No
1,1,1,0,0,3,0,0,0,0,0,0,0,1133,0,No
1,1,1,0,1,4,0,0,0,0,0,0,0,1162,0,Yes
0,0,0,0,0,4,0,0,0,0,0,0,0,958,0,No
2,2,8,0,1,5,0,0,0,0,0,0,0,958,2,Yes
0,0,0,0,0,4,0,0,0,0,0,0,0,958,0,No
2,4,11,0,1,5,0,0,0,0,0,0,0,958,3,Yes
0,0,0,0,0,4,0,0,0,0,0,0,0,958,0,No
2,3,3,0,1,3,0,0,0,0,0,0,0,259,3,Yes
0,0,0,0,0,4,0,0,0,0,0,0,0,958,0,No
2,2,5,0,1,5,0,0,0,0,0,0,0,958,2,Yes
1,0,2,0,0,4,0,0,0,0,0,0,0,958,0,No
0,0,0,0,0,4,0,0,0,0,0,0,0,958,0,No
4,5,19,0,1,7,0,0,0,0,0,0,0,958,3,Yes
4,1,7,0,1,5,0,0,0,0,0,0,0,958,0,Yes
0,0,0,0,0,4,0,0,0,0,0,0,0,723,0,No
2,2,7,0,1,5,0,0,0,0,0,0,0,619,1,Yes
0,0,0,0,0,4,0,0,0,0,0,0,0,958,0,No
2,9,21,0,2,6,0,0,0,0,0,0,0,692,3,Yes
0,0,0,0,0,4,0,0,0,0,0,0,0,723,0,No
2,4,10,0,1,5,0,0,0,0,0,0,0,958,2,Yes
0,0,0,0,0,4,0,0,0,0,0,0,0,723,0,No
2,3,6,0,1,5,0,0,0,0,0,0,0,723,2,Yes
0,0,0,0,0,4,0,0,0,0,0,0,0,723,0,No
2,2,8,0,1,8,0,0,0,0,0,0,0,723,2,Yes
0,0,0,0,0,4,0,0,0,0,0,0,0,958,0,No
2,3,9,0,1,5,0,0,0,0,0,0,0,958,2,Yes
0,0,0,0,0,4,0,0,0,0,0,0,0,723,0,No
2,3,9,0,1,9,0,0,0,0,0,0,0,717,1,Yes
0,0,0,0,0,4,0,0,0,0,0,0,0,958,0,No
2,2,4,0,1,3,0,0,0,0,0,0,0,259,1,Yes
0,0,0,0,0,5,0,0,0,0,0,0,0,958,0,No
4,13,24,0,1,7,0,0,0,0,0,0,0,629,1,Yes
0,0,0,0,0,4,0,0,0,0,0,0,0,958,0,No
2,4,8,0,1,5,0,0,0,0,0,0,0,629,1,Yes
1,3,23,0,2,7,0,0,0,0,0,0,0,622,0,No
0,0,0,0,0,4,0,0,0,0,0,0,0,1123,0,No
12,2,58,0,0,7,0,0,0,0,0,0,0,679,0,No
0,0,0,0,0,4,0,0,0,0,0,0,0,1123,0,No
0,0,0,0,0,5,0,0,0,0,0,0,0,1123,0,No
1,2,1,0,0,4,0,0,0,0,0,0,0,692,1,No
1,7,18,0,0,5,0,0,0,0,0,0,0,692,1,No
0,0,0,0,0,1,0,0,0,0,0,0,0,261,1,No
1,1,1,0,1,6,0,0,0,0,0,0,0,622,0,No
17,4,17,0,0,3,0,0,0,0,0,0,0,175,0,No
4,3,4,0,0,4,0,0,0,0,0,0,0,206,0,No
2,2,2,0,0,5,0,0,0,0,0,0,0,723,2,No
2,2,2,0,0,5,0,0,0,0,0,0,0,1123,0,No
16,1,42,8,1,5,4,4,0,0,1,1,1,1077,0,No
1,0,1,0,0,4,0,0,0,0,0,0,0,1162,0,No
1,1,1,0,0,4,0,0,0,0,0,0,0,514,0,No
4,2,4,0,0,2,0,0,0,0,0,0,0,262,0,No
0,0,0,0,0,6,0,0,0,0,0,0,0,1123,0,No
10,21,61,0,1,5,0,0,0,0,0,0,0,262,10,No
11,0,21,0,0,2,0,0,0,0,0,0,0,169,2,No
22,10,97,0,0,8,0,0,0,0,0,0,0,1035,40,No
1,4,3,0,0,4,0,0,0,0,0,0,0,240,0,No
2,7,11,13,2,4,12,12,11,11,2,4,4,218,0,No
2,5,10,0,0,3,0,0,0,0,0,0,0,262,1,No
20,26,55,0,5,9,0,0,0,0,0,0,0,1100,5,No
0,0,0,0,0,3,0,0,0,0,0,0,0,1123,0,No
4,4,7,14,1,4,9,9,4,4,1,3,7,715,1,No
1,0,1,15,2,3,15,12,15,12,2,5,9,1123,0,No
2,2,5,1,1,3,0,0,-1,0,1,3,7,723,2,No
3,5,12,0,0,4,0,0,0,0,0,0,0,591,1,No
1,0,1,9,1,3,9,9,9,9,1,3,7,1123,0,No
0,0,0,0,0,3,0,0,0,0,0,0,0,1123,0,No
4,5,5,0,1,4,0,0,0,0,0,0,0,723,0,No
0,0,0,0,0,4,0,0,0,0,0,0,0,723,0,No
2,12,11,0,0,4,0,0,0,0,0,0,0,517,1,No
0,0,0,0,0,3,0,0,0,0,0,0,0,723,1,No
2,1,2,0,0,5,0,0,0,0,0,0,0,517,0,No
0,1,0,0,0,4,0,0,0,0,0,0,0,723,0,No
6,17,36,152,2,5,57,57,-38,0,2,3,9,723,4,Yes
1,2,10,0,1,2,0,0,0,0,0,0,0,492,0,No
6,22,44,0,2,5,0,0,0,0,0,0,0,723,5,Yes
4,11,15,0,0,4,0,0,0,0,0,0,0,1162,6,No
2,7,3,0,0,4,0,0,0,0,0,0,0,941,0,No
9,15,17,0,2,7,0,0,0,0,0,0,0,1087,2,No
13,22,36,0,2,9,0,0,0,0,0,0,0,1102,4,No
5,13,11,0,1,6,0,0,0,0,0,0,0,1114,0,Yes
10,14,21,0,1,6,0,0,0,0,0,0,0,884,4,No
6,9,10,0,1,6,0,0,0,0,0,0,0,619,3,No
15,18,24,0,3,7,0,0,0,0,0,0,0,679,2,Yes
16,21,40,0,1,7,0,0,0,0,0,0,0,517,7,Yes
9,30,30,0,2,8,0,0,0,0,0,0,0,1100,1,No
11,27,28,0,1,7,0,0,0,0,0,0,0,1091,0,Yes
5,13,11,0,1,6,0,0,0,0,0,0,0,1119,0,No
18,30,53,2,2,7,1,1,0,0,1,3,7,996,7,Yes
1,0,1,0,0,4,0,0,0,0,0,0,0,1162,0,No
39,32,67,19,4,8,15,15,11,11,2,4,4,1129,9,Yes
8,13,15,0,0,7,0,0,0,0,0,0,0,609,0,No
5,13,11,0,1,7,0,0,0,0,0,0,0,797,0,No
9,9,9,0,0,5,0,0,0,0,0,0,0,612,0,No
14,38,152,0,2,7,0,0,0,0,0,0,0,1090,9,No
2,2,2,0,0,4,0,0,0,0,0,0,0,1087,0,No
4,9,31,0,0,6,0,0,0,0,0,0,0,1102,0,No
4,6,7,0,0,4,0,0,0,0,0,0,0,1114,0,Yes
3,2,3,0,0,5,0,0,0,0,0,0,0,619,0,No
3,15,29,0,0,5,0,0,0,0,0,0,0,678,0,Yes
7,11,23,0,0,5,0,0,0,0,0,0,0,517,1,No
13,23,57,0,2,6,0,0,0,0,0,0,0,1100,0,No
6,25,54,0,1,6,0,0,0,0,0,0,0,1112,5,No
4,10,9,0,0,4,0,0,0,0,0,0,0,1114,0,Yes
7,25,50,0,0,8,0,0,0,0,0,0,0,1000,1,Yes
8,0,10,0,0,4,0,0,0,0,0,0,0,1129,0,No
12,32,55,0,3,10,0,0,0,0,0,0,0,1112,6,No
6,8,10,0,0,6,0,0,0,0,0,0,0,609,0,No
4,2,4,0,0,5,0,0,0,0,0,0,0,797,0,No
3,0,18,0,1,3,0,0,0,0,0,0,0,174,1,No
9,12,36,0,1,5,0,0,0,0,0,0,0,174,1,Yes
5,0,5,0,0,4,0,0,0,0,0,0,0,1098,1,No
2,2,4,0,0,4,0,0,0,0,0,0,0,311,0,No
6,8,13,0,2,7,0,0,0,0,0,0,0,938,2,No
1,1,3,0,0,1,0,0,0,0,0,0,0,100,0,No
1,7,9,0,2,4,0,0,0,0,0,0,0,938,0,No
10,8,10,0,1,4,0,0,0,0,0,0,0,174,0,No
14,10,16,0,0,5,0,0,0,0,0,0,0,173,0,Yes
1,0,1,0,0,6,0,0,0,0,0,0,0,1162,0,No
32,0,32,0,0,3,0,0,0,0,0,0,0,174,0,No
2,4,2,0,0,5,0,0,0,0,0,0,0,1162,0,No
4,6,16,0,0,3,0,0,0,0,0,0,0,189,2,No
6,4,6,0,0,2,0,0,0,0,0,0,0,168,0,Yes
8,10,22,0,1,4,0,0,0,0,0,0,0,169,0,Yes
14,9,15,0,0,3,0,0,0,0,0,0,0,168,0,Yes
11,10,11,0,0,5,0,0,0,0,0,0,0,173,0,No
14,7,14,0,0,2,0,0,0,0,0,0,0,167,0,Yes
6,11,21,0,0,4,0,0,0,0,0,0,0,170,0,No
16,17,24,0,0,5,0,0,0,0,0,0,0,163,0,Yes
7,5,10,0,0,2,0,0,0,0,0,0,0,168,0,Yes
26,10,26,0,1,4,0,0,0,0,0,0,0,164,0,Yes
5,4,5,0,1,6,0,0,0,0,0,0,0,1162,0,No
4,5,10,0,0,1,0,0,0,0,0,0,0,161,1,No
6,2,6,0,0,7,0,0,0,0,0,0,0,598,3,No
6,2,6,0,0,7,0,0,0,0,0,0,0,598,6,No
1,1,1,0,1,6,0,0,0,0,0,0,0,1123,0,No
15,3,20,0,0,6,0,0,0,0,0,0,0,615,0,No
7,22,27,0,1,4,0,0,0,0,0,0,0,199,0,No
6,23,67,0,2,6,0,0,0,0,0,0,0,261,1,Yes
27,51,131,2,5,9,1,1,0,0,1,1,1,723,15,Yes
3,0,3,0,0,3,0,0,0,0,0,0,0,1162,0,No
33,48,142,0,1,5,0,0,0,0,0,0,0,1090,23,Yes
10,1,41,0,0,7,0,0,0,0,0,0,0,657,8,No
5,4,57,0,3,7,0,0,0,0,0,0,0,546,6,No
3,0,38,0,0,1,0,0,0,0,0,0,0,99,9,No
13,1,16,0,2,1,0,0,0,0,0,0,0,133,0,No
8,1,18,0,0,5,0,0,0,0,0,0,0,861,1,No
4,0,8,0,0,2,0,0,0,0,0,0,0,197,4,No
0,0,0,0,0,5,0,0,0,0,0,0,0,1123,0,No
7,5,37,0,1,4,0,0,0,0,0,0,0,820,11,No
9,27,98,4,3,5,3,3,2,2,1,1,1,497,9,No
4,1,16,0,1,4,0,0,0,0,0,0,0,311,0,No
1,0,2,0,0,5,0,0,0,0,0,0,0,1123,1,No
4,10,20,0,0,4,0,0,0,0,0,0,0,723,0,No
1,0,5,0,1,1,0,0,0,0,0,0,0,106,0,No
5,1,15,0,1,2,0,0,0,0,0,0,0,148,0,No
6,1,6,6,1,3,3,3,0,0,1,1,1,148,0,No
5,0,5,0,0,4,0,0,0,0,0,0,0,1162,0,No
2,1,4,0,0,4,0,0,0,0,0,0,0,594,0,No
14,0,18,0,1,5,0,0,0,0,0,0,0,546,0,No
2,0,6,0,0,4,0,0,0,0,0,0,0,546,1,No
3,2,4,0,1,5,0,0,0,0,0,0,0,778,3,No
8,3,8,0,1,4,0,0,0,0,0,0,0,240,0,No
0,1,0,0,1,5,0,0,0,0,0,0,0,723,0,No
3,0,3,0,1,6,0,0,0,0,0,0,0,1123,0,No
9,1,9,0,1,4,0,0,0,0,0,0,0,612,0,No
1,8,3,0,1,4,0,0,0,0,0,0,0,178,2,No
0,0,0,0,0,3,0,0,0,0,0,0,0,1123,0,No
5,9,5,0,0,4,0,0,0,0,0,0,0,240,0,No
11,11,11,0,0,3,0,0,0,0,0,0,0,240,0,No
4,7,4,0,0,3,0,0,0,0,0,0,0,240,0,No
13,9,13,0,1,8,0,0,0,0,0,0,0,630,0,No
15,11,19,0,4,7,0,0,0,0,0,0,0,647,0,Yes
10,7,10,0,1,7,0,0,0,0,0,0,0,647,1,No
26,15,82,0,4,7,0,0,0,0,0,0,0,636,15,No
3,1,5,0,1,7,0,0,0,0,0,0,0,636,3,No
1,1,1,0,0,3,0,0,0,0,0,0,0,723,0,No
13,3,15,59,0,5,37,37,15,15,2,4,8,624,2,No
17,2,26,8,0,5,4,4,0,0,2,4,8,624,1,No
1,0,1,2,0,3,1,1,0,0,2,4,8,723,0,No
4,0,4,0,0,3,0,0,0,0,0,0,0,723,0,No
18,4,21,51,0,5,44,44,37,37,2,4,8,624,2,No
22,7,40,5,0,5,5,5,5,5,2,4,8,624,1,Yes
2,3,2,0,0,3,0,0,0,0,0,0,0,636,0,No
1,1,1,0,1,4,0,0,0,0,0,0,0,723,0,No
1,3,1,0,0,5,0,0,0,0,0,0,0,636,0,No
1,2,2,0,1,4,0,0,0,0,0,0,0,636,0,No
1,2,1,0,0,3,0,0,0,0,0,0,0,636,0,No
1,0,1,0,0,3,0,0,0,0,0,0,0,723,1,No
1,0,1,0,0,3,0,0,0,0,0,0,0,723,1,No
1,4,1,0,0,5,0,0,0,0,0,0,0,636,0,No
2,0,6,0,0,3,0,0,0,0,0,0,0,654,2,No
6,0,19,0,1,3,0,0,0,0,0,0,0,654,1,No
3,0,9,0,0,1,0,0,0,0,0,0,0,183,5,No
2,0,9,0,1,3,0,0,0,0,0,0,0,654,2,No
5,0,17,0,0,3,0,0,0,0,0,0,0,654,1,No
1,0,10,0,0,1,0,0,0,0,0,0,0,293,5,No
4,0,5,0,0,2,0,0,0,0,0,0,0,246,1,No
1,0,2,0,0,4,0,0,0,0,0,0,0,1239,0,No
2,0,2,0,0,4,0,0,0,0,0,0,0,615,0,No
3,4,16,0,1,3,0,0,0,0,0,0,0,247,4,No
8,6,9,0,2,2,0,0,0,0,0,0,0,266,0,No
13,8,17,0,0,3,0,0,0,0,0,0,0,266,0,No
2,3,2,0,0,4,0,0,0,0,0,0,0,1239,0,No
4,5,14,0,0,2,0,0,0,0,0,0,0,266,0,No
5,3,5,0,0,3,0,0,0,0,0,0,0,261,0,No
9,8,24,0,1,4,0,0,0,0,0,0,0,262,0,No
12,6,13,0,2,3,0,0,0,0,0,0,0,265,0,No
10,9,12,0,1,3,0,0,0,0,0,0,0,265,0,No
13,5,13,0,0,2,0,0,0,0,0,0,0,267,0,No
6,8,13,0,1,3,0,0,0,0,0,0,0,261,0,No
1,0,1,0,0,4,0,0,0,0,0,0,0,1239,0,No
4,2,8,0,1,5,0,0,0,0,0,0,0,1239,0,No
15,15,35,0,2,4,0,0,0,0,0,0,0,262,1,No
6,3,9,0,0,3,0,0,0,0,0,0,0,260,0,No
25,8,25,0,1,4,0,0,0,0,0,0,0,267,0,No
5,3,5,0,1,1,0,0,0,0,0,0,0,223,0,No
3,3,3,0,0,5,0,0,0,0,0,0,0,1239,0,Yes
3,0,3,0,0,4,0,0,0,0,0,0,0,1239,0,No
0,0,0,0,0,6,0,0,0,0,0,0,0,800,1,No
0,0,0,0,0,5,0,0,0,0,0,0,0,800,0,No
0,1,0,0,0,4,0,0,0,0,0,0,0,800,0,No
0,0,0,0,0,4,0,0,0,0,0,0,0,800,0,No
35,1,42,0,0,5,0,0,0,0,0,0,0,1155,0,No
11,1,12,0,0,4,0,0,0,0,0,0,0,1155,0,No
11,0,12,0,0,5,0,0,0,0,0,0,0,1239,2,No
2,1,2,0,0,4,0,0,0,0,0,0,0,1239,0,No
25,0,38,0,0,4,0,0,0,0,0,0,0,1175,0,No
15,1,26,0,0,5,0,0,0,0,0,0,0,1155,2,No
2,1,2,0,0,5,0,0,0,0,0,0,0,800,0,No
1,0,1,0,0,4,0,0,0,0,0,0,0,594,0,No
10,3,10,0,0,5,0,0,0,0,0,0,0,594,0,No
12,1,14,0,0,3,0,0,0,0,0,0,0,569,0,No
10,3,10,0,0,5,0,0,0,0,0,0,0,594,0,No
0,0,0,0,0,4,0,0,0,0,0,0,0,1200,1,No
7,1,11,0,0,4,0,0,0,0,0,0,0,1086,0,No
3,1,3,0,0,4,0,0,0,0,0,0,0,1196,0,No
5,1,6,0,0,4,0,0,0,0,0,0,0,1239,1,No
29,1,51,0,0,5,0,0,0,0,0,0,0,1086,1,No
3,1,3,0,0,5,0,0,0,0,0,0,0,1239,0,No
1,0,1,0,0,4,0,0,0,0,0,0,0,1200,0,No
8,3,8,0,1,3,0,0,0,0,0,0,0,266,0,No
13,7,13,0,1,3,0,0,0,0,0,0,0,266,0,No
2,1,2,0,0,4,0,0,0,0,0,0,0,1239,0,No
0,0,0,0,0,5,0,0,0,0,0,0,0,1200,0,No
4,2,4,0,0,2,0,0,0,0,0,0,0,266,1,Yes
5,1,5,0,0,4,0,0,0,0,0,0,0,261,0,No
7,3,7,0,1,3,0,0,0,0,0,0,0,262,0,No
12,3,12,0,1,3,0,0,0,0,0,0,0,265,0,No
2,0,2,0,0,5,0,0,0,0,0,0,0,1239,0,No
10,6,10,0,0,3,0,0,0,0,0,0,0,265,0,No
13,3,13,0,0,3,0,0,0,0,0,0,0,267,0,Yes
5,3,5,0,0,3,0,0,0,0,0,0,0,261,0,No
14,8,14,0,0,4,0,0,0,0,0,0,0,262,0,No
6,1,6,0,0,3,0,0,0,0,0,0,0,261,1,No
25,6,25,0,1,5,0,0,0,0,0,0,0,267,0,Yes
5,2,5,0,1,5,0,0,0,0,0,0,0,1239,0,No
3,2,3,0,0,3,0,0,0,0,0,0,0,266,0,Yes
20,0,29,0,0,6,0,0,0,0,0,0,0,1206,1,No
10,1,14,0,0,4,0,0,0,0,0,0,0,1077,0,No
2,1,2,0,0,4,0,0,0,0,0,0,0,1239,0,No
2,2,2,0,0,4,0,0,0,0,0,0,0,1239,0,No
8,1,13,0,0,5,0,0,0,0,0,0,0,1239,2,No
6,1,8,0,0,2,0,0,0,0,0,0,0,198,0,No
9,1,16,0,0,2,0,0,0,0,0,0,0,198,1,No
4,1,4,0,0,4,0,0,0,0,0,0,0,1239,0,No
14,2,14,0,0,4,0,0,0,0,0,0,0,1177,0,No
3,1,3,0,0,4,0,0,0,0,0,0,0,1239,2,No
23,3,31,0,0,7,0,0,0,0,0,0,0,1179,2,No
5,1,7,0,1,5,0,0,0,0,0,0,0,615,0,No
3,1,3,0,0,5,0,0,0,0,0,0,0,1239,0,No
2,0,2,0,0,4,0,0,0,0,0,0,0,1196,0,No
3,1,3,0,0,1,0,0,0,0,0,0,0,267,0,No
3,1,3,0,0,4,0,0,0,0,0,0,0,1239,0,No
4,2,4,0,0,4,0,0,0,0,0,0,0,1239,0,No
3,1,3,0,0,4,0,0,0,0,0,0,0,1239,0,No
16,3,16,0,0,5,0,0,0,0,0,0,0,1184,0,No
11,2,27,0,1,4,0,0,0,0,0,0,0,319,2,No
12,0,12,0,0,5,0,0,0,0,0,0,0,1239,2,No
24,4,27,0,0,6,0,0,0,0,0,0,0,696,0,No
16,1,18,0,0,5,0,0,0,0,0,0,0,689,1,No
2,2,2,0,0,4,0,0,0,0,0,0,0,1239,0,No
6,2,6,0,0,4,0,0,0,0,0,0,0,1239,0,No
3,1,3,0,0,1,0,0,0,0,0,0,0,267,0,No
6,1,9,0,0,2,0,0,0,0,0,0,0,246,1,No
10,2,10,41,0,5,32,23,23,23,5,10,14,591,0,No
18,3,18,0,0,4,0,0,0,0,0,0,0,1077,0,No
2,0,2,0,0,4,0,0,0,0,0,0,0,800,0,No
24,4,32,0,0,5,0,0,0,0,0,0,0,594,0,No
42,4,42,0,1,4,0,0,0,0,0,0,0,1175,0,No
30,0,37,2,1,5,2,2,2,2,2,2,2,1168,1,No
12,0,16,0,0,5,0,0,0,0,0,0,0,1239,0,No
18,1,19,0,0,6,0,0,0,0,0,0,0,1239,0,No
3,1,3,0,0,1,0,0,0,0,0,0,0,267,0,No
2,2,2,0,0,4,0,0,0,0,0,0,0,1239,0,No
18,0,18,0,0,4,0,0,0,0,0,0,0,800,0,No
2,0,2,0,0,4,0,0,0,0,0,0,0,1077,0,No
12,1,16,0,0,6,0,0,0,0,0,0,0,1077,0,No
1,0,1,0,0,5,0,0,0,0,0,0,0,1239,0,No
10,3,13,0,0,5,0,0,0,0,0,0,0,686,1,No
25,0,31,0,0,5,0,0,0,0,0,0,0,1206,1,No
3,1,3,0,0,4,0,0,0,0,0,0,0,1239,0,No
2,0,2,0,0,5,0,0,0,0,0,0,0,1239,0,No
4,1,4,0,0,4,0,0,0,0,0,0,0,800,0,No
20,2,21,0,0,4,0,0,0,0,0,0,0,702,0,No
20,1,27,0,0,6,0,0,0,0,0,0,0,702,2,No
0,1,0,0,0,4,0,0,0,0,0,0,0,1200,1,No
22,1,26,13,0,5,13,13,13,13,3,5,7,1200,0,No
1,0,1,0,0,5,0,0,0,0,0,0,0,1200,1,No
2,0,4,0,0,4,0,0,0,0,0,0,0,1239,3,No
2,0,2,3,0,5,2,2,1,1,2,5,6,1239,2,Yes
5,3,9,0,0,2,0,0,0,0,0,0,0,553,0,Yes
2,0,2,0,0,5,0,0,0,0,0,0,0,1200,2,No
1,0,1,0,0,6,0,0,0,0,0,0,0,1200,1,No
15,1,17,0,0,5,0,0,0,0,0,0,0,1239,1,No
7,1,7,0,0,4,0,0,0,0,0,0,0,1239,1,No
1,0,1,0,0,4,0,0,0,0,0,0,0,1200,0,No
1,0,1,0,0,5,0,0,0,0,0,0,0,1200,1,No
2,0,2,6,2,3,3,3,0,0,2,11,47,526,1,No
5,0,17,0,2,7,0,0,0,0,0,0,0,1200,9,No
1,0,1,0,0,5,0,0,0,0,0,0,0,1200,1,No
0,0,0,0,1,2,0,0,0,0,0,0,0,220,0,No
48,1,52,0,0,6,0,0,0,0,0,0,0,769,0,No
2,0,2,0,0,5,0,0,0,0,0,0,0,1200,1,No
0,0,0,0,0,4,0,0,0,0,0,0,0,1200,0,No
2,0,3,0,0,5,0,0,0,0,0,0,0,1200,1,No
0,0,0,0,0,4,0,0,0,0,0,0,0,1200,0,No
1,0,1,0,0,5,0,0,0,0,0,0,0,1200,1,No
1,0,1,0,0,5,0,0,0,0,0,0,0,1200,1,Yes
2,4,2,0,1,4,0,0,0,0,0,0,0,800,1,No
10,2,11,0,0,8,0,0,0,0,0,0,0,1200,0,No
3,0,6,22,2,4,11,11,0,1,4,15,51,1184,1,No
2,0,9,0,0,4,0,0,0,0,0,0,0,602,0,No
1,0,1,0,0,4,0,0,0,0,0,0,0,1200,0,No
2,0,5,0,0,5,0,0,0,0,0,0,0,800,3,No
0,0,0,0,0,4,0,0,0,0,0,0,0,1200,0,No
1,0,1,0,0,5,0,0,0,0,0,0,0,800,1,No
0,0,0,0,0,4,0,0,0,0,0,0,0,800,0,No
0,0,0,0,0,4,0,0,0,0,0,0,0,1200,0,No
11,11,53,0,0,6,0,0,0,0,0,0,0,682,0,Yes
17,10,34,0,1,4,0,0,0,0,0,0,0,251,1,Yes
7,1,14,0,2,6,0,0,0,0,0,0,0,1184,0,No
1,1,11,0,2,4,0,0,0,0,0,0,0,1184,2,No
8,1,8,0,0,5,0,0,0,0,0,0,0,1184,0,No
8,14,18,0,0,6,0,0,0,0,0,0,0,1200,0,No
1,1,8,0,0,3,0,0,0,0,0,0,0,1063,1,No
13,31,14,0,2,7,0,0,0,0,0,0,0,1200,0,No
4,4,10,0,1,6,0,0,0,0,0,0,0,692,2,Yes
3,0,3,0,0,2,0,0,0,0,0,0,0,401,0,No
0,0,0,0,0,2,0,0,0,0,0,0,0,132,0,No
0,0,0,0,0,4,0,0,0,0,0,0,0,1200,0,No
3,1,4,0,0,5,0,0,0,0,0,0,0,800,2,No
6,1,10,0,0,4,0,0,0,0,0,0,0,581,0,No
3,0,3,0,0,2,0,0,0,0,0,0,0,238,1,No
2,0,2,0,0,5,0,0,0,0,0,0,0,800,0,No
10,0,21,0,2,6,0,0,0,0,0,0,0,954,3,No
7,2,12,0,0,4,0,0,0,0,0,0,0,959,1,No
1,1,4,0,0,3,0,0,0,0,0,0,0,1239,1,No
1,6,3,0,1,4,0,0,0,0,0,0,0,869,0,No
13,2,13,0,0,5,0,0,0,0,0,0,0,1091,2,No
2,0,3,0,0,3,0,0,0,0,0,0,0,1239,0,No
7,0,12,0,0,5,0,0,0,0,0,0,0,799,1,No
2,3,12,0,2,6,0,0,0,0,0,0,0,917,2,No
2,0,7,0,1,5,0,0,0,0,0,0,0,919,0,No
7,0,7,0,0,3,0,0,0,0,0,0,0,1239,0,No
9,6,34,0,0,4,0,0,0,0,0,0,0,582,2,No
2,0,8,0,0,6,0,0,0,0,0,0,0,1028,0,No
8,3,28,0,0,4,0,0,0,0,0,0,0,581,2,No
2,0,4,0,0,1,0,0,0,0,0,0,0,238,0,No
4,8,4,0,0,4,0,0,0,0,0,0,0,1200,0,No
3,7,8,0,1,6,0,0,0,0,0,0,0,799,1,No
2,2,2,0,0,5,0,0,0,0,0,0,0,869,0,No
10,12,29,0,1,5,0,0,0,0,0,0,0,699,2,No
1,1,1,0,1,5,0,0,0,0,0,0,0,1200,0,No
9,4,16,0,0,7,0,0,0,0,0,0,0,1200,2,No
6,6,7,0,0,2,0,0,0,0,0,0,0,198,1,No
4,2,4,0,0,3,0,0,0,0,0,0,0,198,0,No
36,19,54,0,1,7,0,0,0,0,0,0,0,1200,16,Yes
4,4,7,0,1,6,0,0,0,0,0,0,0,1094,4,No
3,5,13,0,0,2,0,0,0,0,0,0,0,204,0,No
13,16,42,0,2,7,0,0,0,0,0,0,0,1175,3,No
4,7,12,0,2,6,0,0,0,0,0,0,0,1175,1,No
11,3,16,0,3,6,0,0,0,0,0,0,0,1148,1,No
2,8,5,0,2,5,0,0,0,0,0,0,0,594,0,Yes
0,0,0,0,0,3,0,0,0,0,0,0,0,1200,0,No
0,0,0,0,0,3,0,0,0,0,0,0,0,800,0,No
0,0,0,37,0,1,37,37,37,37,3,6,9,69,0,No
0,0,0,0,0,3,0,0,0,0,0,0,0,1200,0,No
0,1,0,0,0,2,0,0,0,0,0,0,0,241,2,No
11,10,15,0,2,7,0,0,0,0,0,0,0,1199,9,No
0,2,0,0,0,5,0,0,0,0,0,0,0,1198,1,No
4,5,4,0,1,6,0,0,0,0,0,0,0,1148,2,No
8,12,19,27,3,7,25,25,23,23,2,6,9,689,3,Yes
0,3,0,0,1,6,0,0,0,0,0,0,0,689,0,No
7,14,27,0,2,7,0,0,0,0,0,0,0,699,6,No
0,2,0,0,1,4,0,0,0,0,0,0,0,869,0,No
3,3,3,0,0,4,0,0,0,0,0,0,0,581,0,No
39,19,75,0,2,7,0,0,0,0,0,0,0,581,3,No
11,17,70,0,3,6,0,0,0,0,0,0,0,569,3,No
26,16,41,0,3,8,0,0,0,0,0,0,0,1200,5,Yes
5,8,16,0,8,7,0,0,0,0,0,0,0,1169,3,No
35,13,43,0,3,7,0,0,0,0,0,0,0,1200,15,Yes
13,13,36,39,1,5,38,38,37,37,3,6,9,582,3,No
5,6,9,0,3,7,0,0,0,0,0,0,0,1148,1,No
4,5,6,0,0,4,0,0,0,0,0,0,0,332,1,No
1,2,1,0,0,5,0,0,0,0,0,0,0,869,0,No
8,9,14,0,1,7,0,0,0,0,0,0,0,1200,5,Yes
1,2,1,0,0,6,0,0,0,0,0,0,0,799,0,No
19,14,35,0,2,7,0,0,0,0,0,0,0,1193,2,No
10,11,41,0,2,8,0,0,0,0,0,0,0,1175,6,No
5,5,8,0,1,6,0,0,0,0,0,0,0,608,2,No
1,5,2,0,1,6,0,0,0,0,0,0,0,799,0,No
11,14,19,0,3,7,0,0,0,0,0,0,0,1064,2,No
11,12,16,0,1,7,0,0,0,0,0,0,0,1200,0,Yes
24,13,37,0,1,7,0,0,0,0,0,0,0,699,8,No
10,8,18,0,3,7,0,0,0,0,0,0,0,1148,4,No
3,5,5,0,0,4,0,0,0,0,0,0,0,332,1,No
2,5,11,0,0,5,0,0,0,0,0,0,0,594,3,No
2,2,2,0,0,5,0,0,0,0,0,0,0,869,0,No
7,10,11,0,3,7,0,0,0,0,0,0,0,1200,4,No
2,1,2,0,0,5,0,0,0,0,0,0,0,869,0,No
4,7,12,0,1,6,0,0,0,0,0,0,0,869,1,No
1,2,1,0,0,6,0,0,0,0,0,0,0,1200,0,No
12,15,51,0,1,3,0,0,0,0,0,0,0,280,0,No
17,9,23,0,4,7,0,0,0,0,0,0,0,692,1,No
0,3,0,0,0,2,0,0,0,0,0,0,0,132,0,No
0,3,0,0,0,5,0,0,0,0,0,0,0,594,0,No
8,8,9,0,0,3,0,0,0,0,0,0,0,198,1,Yes
8,19,38,0,1,7,0,0,0,0,0,0,0,784,2,No
9,8,13,0,2,6,0,0,0,0,0,0,0,867,0,No
2,0,2,0,0,4,0,0,0,0,0,0,0,1200,0,No
11,13,29,0,1,5,0,0,0,0,0,0,0,784,0,No
10,10,19,0,2,7,0,0,0,0,0,0,0,1200,6,No
15,15,23,0,3,7,0,0,0,0,0,0,0,750,3,No
14,15,34,19,1,7,14,14,9,9,3,5,7,756,1,No
11,12,20,0,2,7,0,0,0,0,0,0,0,1200,6,No
6,15,27,0,2,7,0,0,0,0,0,0,0,594,2,No
7,11,11,0,0,7,0,0,0,0,0,0,0,594,1,No
20,19,93,0,9,8,0,0,0,0,0,0,0,594,3,No
5,5,15,0,0,7,0,0,0,0,0,0,0,708,1,No
6,13,18,0,2,7,0,0,0,0,0,0,0,784,2,No
19,10,36,0,0,3,0,0,0,0,0,0,0,332,0,No
6,7,6,0,2,7,0,0,0,0,0,0,0,685,3,Yes
3,2,3,0,0,3,0,0,0,0,0,0,0,280,0,Yes
11,12,15,0,2,4,0,0,0,0,0,0,0,280,1,No
6,7,11,0,0,7,0,0,0,0,0,0,0,708,1,No
5,4,5,0,0,5,0,0,0,0,0,0,0,685,5,No
1,7,1,0,2,6,0,0,0,0,0,0,0,685,0,No
12,12,22,0,2,7,0,0,0,0,0,0,0,1200,6,No
14,3,28,0,0,3,0,0,0,0,0,0,0,280,4,No
3,6,4,0,2,5,0,0,0,0,0,0,0,332,0,No
10,15,24,0,0,6,0,0,0,0,0,0,0,594,5,No
16,14,26,0,2,7,0,0,0,0,0,0,0,1200,6,No
1,5,2,0,0,6,0,0,0,0,0,0,0,696,0,No
6,5,8,0,1,6,0,0,0,0,0,0,0,1200,1,No
14,21,32,0,5,4,0,0,0,0,0,0,0,280,2,No
10,11,24,0,2,6,0,0,0,0,0,0,0,867,0,No
7,6,7,0,1,6,0,0,0,0,0,0,0,1239,0,Yes
3,2,3,0,2,6,0,0,0,0,0,0,0,699,0,No
2,2,2,0,1,5,0,0,0,0,0,0,0,996,0,No
1,1,1,0,0,5,0,0,0,0,0,0,0,1239,0,No
6,2,6,0,0,6,0,0,0,0,0,0,0,1148,0,No
14,12,28,0,3,6,0,0,0,0,0,0,0,1175,1,No
2,0,2,0,0,4,0,0,0,0,0,0,0,1200,0,No
0,0,0,0,0,5,0,0,0,0,0,0,0,1200,1,No
7,8,9,0,0,6,0,0,0,0,0,0,0,1148,0,Yes
7,7,7,0,0,6,0,0,0,0,0,0,0,689,0,Yes
7,7,16,0,3,7,0,0,0,0,0,0,0,756,1,No
11,5,12,0,1,6,0,0,0,0,0,0,0,581,0,Yes
7,7,10,0,0,6,0,0,0,0,0,0,0,1169,0,No
11,10,11,0,0,7,0,0,0,0,0,0,0,1169,0,Yes
19,11,32,0,1,7,0,0,0,0,0,0,0,1239,0,No
17,13,23,0,0,8,0,0,0,0,0,0,0,1064,0,Yes
5,5,5,0,0,8,0,0,0,0,0,0,0,682,0,No
14,13,16,0,1,7,0,0,0,0,0,0,0,1190,0,Yes
2,4,2,0,0,6,0,0,0,0,0,0,0,996,0,No
4,0,4,0,0,1,0,0,0,0,0,0,0,581,0,No
2,1,3,0,1,1,0,0,0,0,0,0,0,220,0,No
2,1,3,0,1,3,0,0,0,0,0,0,0,919,0,No
2,0,2,0,1,3,0,0,0,0,0,0,0,919,0,No
4,1,4,0,1,5,0,0,0,0,0,0,0,689,1,No
3,1,4,0,0,1,0,0,0,0,0,0,0,198,0,No
1,2,10,0,1,4,0,0,0,0,0,0,0,686,0,No
0,0,0,0,0,4,0,0,0,0,0,0,0,1200,0,No
0,0,0,0,0,4,0,0,0,0,0,0,0,1200,0,No
3,0,3,0,0,5,0,0,0,0,0,0,0,689,0,No
1,1,2,0,0,4,0,0,0,0,0,0,0,689,0,No
1,2,3,0,0,4,0,0,0,0,0,0,0,689,0,No
1,0,1,0,0,4,0,0,0,0,0,0,0,1200,0,No
3,0,3,0,1,5,0,0,0,0,0,0,0,1239,3,No
22,3,53,0,2,4,0,0,0,0,0,0,0,608,0,No
5,1,16,0,1,7,0,0,0,0,0,0,0,1148,1,No
2,0,2,0,0,3,0,0,0,0,0,0,0,958,0,No
5,1,5,0,2,7,0,0,0,0,0,0,0,1148,1,No
1,1,1,0,0,4,0,0,0,0,0,0,0,1148,0,No
3,1,3,0,1,5,0,0,0,0,0,0,0,756,0,No
2,1,3,0,0,4,0,0,0,0,0,0,0,1148,0,No
5,1,8,0,2,7,0,0,0,0,0,0,0,1148,2,No
1,0,1,0,0,4,0,0,0,0,0,0,0,1200,0,No
6,1,32,0,0,6,0,0,0,0,0,0,0,756,1,No
4,1,5,0,0,7,0,0,0,0,0,0,0,756,3,No
9,1,23,0,1,8,0,0,0,0,0,0,0,756,6,No
19,0,35,0,2,6,0,0,0,0,0,0,0,756,1,No
0,0,0,0,0,3,0,0,0,0,0,0,0,1200,0,No
8,1,14,0,0,6,0,0,0,0,0,0,0,756,0,No
1,0,1,0,2,1,0,0,0,0,0,0,0,230,0,No
9,0,30,0,0,3,0,0,0,0,0,0,0,569,1,No
16,1,20,0,0,3,0,0,0,0,0,0,0,283,4,No
1,0,1,0,0,5,0,0,0,0,0,0,0,800,0,No
6,10,7,0,1,5,0,0,0,0,0,0,0,1148,5,No
6,4,7,0,0,4,0,0,0,0,0,0,0,685,0,No
1,1,1,0,0,4,0,0,0,0,0,0,0,800,0,No
2,0,2,0,0,3,0,0,0,0,0,0,0,191,0,No
2,3,7,0,0,2,0,0,0,0,0,0,0,561,2,Yes
0,1,0,178,1,2,74,74,-30,0,1,5,11,561,1,No
14,36,132,6,5,8,5,5,4,4,2,2,2,573,8,Yes
11,8,86,0,1,5,0,0,0,0,0,0,0,338,1,No
2,0,14,0,0,3,0,0,0,0,0,0,0,1106,8,No
7,11,13,0,2,7,0,0,0,0,0,0,0,1115,3,No
10,23,37,0,0,1,0,0,0,0,0,0,0,177,10,No
2,7,20,0,2,5,0,0,0,0,0,0,0,547,3,No
13,16,34,0,3,8,0,0,0,0,0,0,0,792,8,No
1,4,9,0,0,5,0,0,0,0,0,0,0,602,0,Yes
2,2,3,0,1,6,0,0,0,0,0,0,0,855,0,No
2,1,2,0,1,5,0,0,0,0,0,0,0,800,0,No
5,3,11,0,1,3,0,0,0,0,0,0,0,255,1,No
5,10,33,44,1,6,41,41,38,38,2,5,6,689,2,Yes
7,23,31,41,0,7,34,30,27,24,4,11,15,689,1,Yes
13,3,18,0,0,6,0,0,0,0,0,0,0,1193,0,No
2,0,2,0,0,3,0,0,0,0,0,0,0,1200,0,No
17,4,48,0,2,5,0,0,0,0,0,0,0,1228,3,No
25,0,42,0,1,4,0,0,0,0,0,0,0,1193,0,No
6,0,15,0,2,5,0,0,0,0,0,0,0,1239,1,No
6,2,6,0,0,6,0,0,0,0,0,0,0,1213,0,Yes
9,2,9,2,1,4,2,2,2,2,2,11,47,1196,1,No
8,0,13,0,0,5,0,0,0,0,0,0,0,594,0,No
12,1,19,0,0,2,0,0,0,0,0,0,0,319,2,No
17,2,24,0,0,5,0,0,0,0,0,0,0,1184,0,No
21,5,28,4,2,5,3,3,2,2,2,11,47,1226,3,No
8,0,10,0,0,5,0,0,0,0,0,0,0,874,0,No
8,2,8,5,1,5,3,3,1,1,2,11,47,1196,1,No
0,1,0,0,0,5,0,0,0,0,0,0,0,1193,0,No
23,4,30,0,0,5,0,0,0,0,0,0,0,1204,2,No
4,1,4,0,0,4,0,0,0,0,0,0,0,1228,0,No
44,7,49,0,0,6,0,0,0,0,0,0,0,1184,1,No
23,5,31,13,0,5,2,2,-9,0,2,6,9,696,0,Yes
16,1,17,0,0,5,0,0,0,0,0,0,0,689,0,No
0,1,0,0,0,4,0,0,0,0,0,0,0,1193,0,No
6,4,6,0,2,5,0,0,0,0,0,0,0,769,0,No
18,5,18,0,0,5,0,0,0,0,0,0,0,1077,0,Yes
13,2,27,0,0,4,0,0,0,0,0,0,0,594,1,No
6,1,8,0,0,4,0,0,0,0,0,0,0,594,0,No
5,2,7,0,0,4,0,0,0,0,0,0,0,594,0,No
8,1,8,0,0,5,0,0,0,0,0,0,0,800,0,No
0,1,0,0,0,5,0,0,0,0,0,0,0,1193,0,No
19,4,21,0,0,7,0,0,0,0,0,0,0,800,0,No
4,1,4,6,1,3,4,4,2,2,2,11,47,1239,0,No
6,2,6,0,0,4,0,0,0,0,0,0,0,1228,0,No
5,0,10,0,0,4,0,0,0,0,0,0,0,1077,0,No
4,0,4,0,0,3,0,0,0,0,0,0,0,1077,0,No
8,4,11,0,0,4,0,0,0,0,0,0,0,686,0,No
11,4,19,0,0,5,0,0,0,0,0,0,0,1193,0,No
5,3,7,0,0,5,0,0,0,0,0,0,0,1035,0,No
3,2,4,0,0,5,0,0,0,0,0,0,0,1239,0,No
4,3,6,0,0,5,0,0,0,0,0,0,0,1193,0,No
0,1,0,0,0,4,0,0,0,0,0,0,0,1193,0,No
0,1,0,0,0,4,0,0,0,0,0,0,0,1193,0,No
5,3,7,0,0,6,0,0,0,0,0,0,0,1193,0,No
0,1,0,0,0,4,0,0,0,0,0,0,0,1193,0,No
24,7,36,0,0,6,0,0,0,0,0,0,0,1163,0,No
0,0,0,0,0,3,0,0,0,0,0,0,0,1200,0,No
11,4,19,0,0,5,0,0,0,0,0,0,0,1193,0,No
5,3,7,0,0,5,0,0,0,0,0,0,0,1035,0,No
3,2,4,0,0,5,0,0,0,0,0,0,0,1239,0,No
4,3,6,0,0,5,0,0,0,0,0,0,0,1193,0,No
0,1,0,0,0,4,0,0,0,0,0,0,0,1193,0,No
8,3,19,0,0,2,0,0,0,0,0,0,0,319,1,No
3,2,5,0,0,5,0,0,0,0,0,0,0,1239,0,No
0,1,0,0,0,4,0,0,0,0,0,0,0,1193,0,No
5,3,8,0,0,6,0,0,0,0,0,0,0,1193,0,No
0,1,0,0,0,4,0,0,0,0,0,0,0,1193,0,No
45,13,84,0,0,5,0,0,0,0,0,0,0,1193,0,Yes
54,11,94,0,2,8,0,0,0,0,0,0,0,1193,1,Yes
11,4,19,0,0,5,0,0,0,0,0,0,0,1193,0,No
5,3,7,0,0,5,0,0,0,0,0,0,0,1035,0,No
3,2,4,0,0,5,0,0,0,0,0,0,0,1239,0,No
4,3,6,0,0,5,0,0,0,0,0,0,0,1193,0,No
0,1,0,2,1,4,0,0,-2,0,2,11,47,1193,0,No
10,3,23,0,0,2,0,0,0,0,0,0,0,319,1,No
3,2,5,0,0,5,0,0,0,0,0,0,0,1239,0,No
0,1,0,2,1,4,0,0,-2,0,2,11,47,1193,0,No
5,3,8,0,0,6,0,0,0,0,0,0,0,1193,0,No
0,1,0,2,1,4,0,0,-2,0,2,11,47,1193,0,No
5,2,5,0,0,4,0,0,0,0,0,0,0,1239,0,No
5,2,5,0,0,4,0,0,0,0,0,0,0,1239,0,No
4,5,4,0,0,6,0,0,0,0,0,0,0,1239,0,No
4,3,4,0,0,6,0,0,0,0,0,0,0,1239,0,Yes
5,2,5,0,0,4,0,0,0,0,0,0,0,1239,0,No
4,2,4,0,0,4,0,0,0,0,0,0,0,1239,0,No
2,1,2,0,0,5,0,0,0,0,0,0,0,1200,0,No
4,1,4,0,0,3,0,0,0,0,0,0,0,1200,0,No
5,2,5,0,0,4,0,0,0,0,0,0,0,1239,0,No
5,4,5,0,0,4,0,0,0,0,0,0,0,1239,0,No
6,3,6,0,0,4,0,0,0,0,0,0,0,1239,0,No
5,3,5,0,0,4,0,0,0,0,0,0,0,1239,0,No
5,4,5,0,0,4,0,0,0,0,0,0,0,1239,0,No
1,0,1,0,0,4,0,0,0,0,0,0,0,1200,0,No
0,0,0,0,0,5,0,0,0,0,0,0,0,1200,0,Yes
4,2,4,0,0,4,0,0,0,0,0,0,0,800,0,No
8,5,8,0,1,4,0,0,0,0,0,0,0,1200,0,No
7,2,7,0,0,4,0,0,0,0,0,0,0,1239,0,Yes
7,3,7,0,0,4,0,0,0,0,0,0,0,1239,0,No
6,4,6,0,0,4,0,0,0,0,0,0,0,1239,0,No
17,8,17,0,0,6,0,0,0,0,0,0,0,1239,1,Yes
5,4,5,0,0,4,0,0,0,0,0,0,0,1239,0,No
10,3,10,0,0,4,0,0,0,0,0,0,0,1239,0,Yes
8,3,8,0,0,4,0,0,0,0,0,0,0,1239,0,No
13,5,13,0,0,6,0,0,0,0,0,0,0,1239,0,Yes
4,2,4,0,0,4,0,0,0,0,0,0,0,800,0,No
5,2,5,0,0,4,0,0,0,0,0,0,0,1239,0,No
5,4,5,0,0,4,0,0,0,0,0,0,0,1239,0,No
8,10,53,0,0,9,0,0,0,0,0,0,0,983,2,Yes
2,0,6,2,2,7,1,1,0,0,1,5,11,1196,2,No
8,2,12,0,0,4,0,0,0,0,0,0,0,1239,0,Yes
5,2,7,0,0,4,0,0,0,0,0,0,0,1228,0,No
5,2,7,0,0,4,0,0,0,0,0,0,0,1228,0,No
16,16,111,4,1,7,2,2,0,0,1,1,1,1239,11,Yes
5,3,9,0,0,4,0,0,0,0,0,0,0,1228,1,No
4,6,9,0,0,5,0,0,0,0,0,0,0,1228,0,No
2,3,5,0,1,7,0,0,0,0,0,0,0,1196,2,No
5,2,7,0,0,4,0,0,0,0,0,0,0,1228,0,No
5,7,8,0,0,4,0,0,0,0,0,0,0,1228,0,No
6,5,9,0,0,4,0,0,0,0,0,0,0,1228,0,No
5,4,8,0,0,4,0,0,0,0,0,0,0,602,0,No
5,6,7,0,0,5,0,0,0,0,0,0,0,1163,0,No
4,3,4,0,0,4,0,0,0,0,0,0,0,696,0,No
8,6,14,0,0,4,0,0,0,0,0,0,0,769,0,No
7,3,10,0,0,4,0,0,0,0,0,0,0,594,0,Yes
8,4,12,0,0,4,0,0,0,0,0,0,0,594,0,No
6,14,23,0,0,7,0,0,0,0,0,0,0,1184,0,No
21,15,45,0,0,7,0,0,0,0,0,0,0,1228,0,Yes
5,7,8,0,0,4,0,0,0,0,0,0,0,1228,0,No
11,6,21,0,0,5,0,0,0,0,0,0,0,1228,0,Yes
9,7,14,0,0,4,0,0,0,0,0,0,0,1228,0,No
15,11,32,0,0,9,0,0,0,0,0,0,0,983,0,Yes
4,3,4,0,0,4,0,0,0,0,0,0,0,696,0,No
5,2,7,0,0,4,0,0,0,0,0,0,0,1228,0,No
5,7,8,0,0,4,0,0,0,0,0,0,0,1228,0,No
2,0,67,0,0,2,0,0,0,0,0,0,0,440,7,No
2,2,2,0,0,4,0,0,0,0,0,0,0,1210,0,No
1,2,2,0,0,5,0,0,0,0,0,0,0,1239,0,No
1,3,6,0,0,6,0,0,0,0,0,0,0,1239,0,No
1,2,2,6,1,5,2,2,-2,0,2,11,47,1210,0,No
0,1,0,0,0,5,0,0,0,0,0,0,0,1239,0,No
0,0,0,0,0,3,0,0,0,0,0,0,0,1239,0,No
1,1,1,0,0,3,0,0,0,0,0,0,0,1210,0,No
2,1,2,15,3,4,13,12,11,11,3,12,49,1239,0,No
0,0,0,0,0,4,0,0,0,0,0,0,0,1035,0,No
1,2,7,8,2,5,1,1,-6,0,2,11,47,1035,1,No
0,0,0,0,0,4,0,0,0,0,0,0,0,1035,0,No
1,4,10,9,2,5,1,1,-7,0,2,11,47,1035,2,No
0,0,0,0,0,4,0,0,0,0,0,0,0,1035,0,No
1,3,2,11,2,3,2,2,-7,0,2,11,47,336,1,No
0,0,0,0,0,4,0,0,0,0,0,0,0,1035,0,No
1,2,2,42,3,5,11,8,-20,0,3,12,49,1035,1,No
1,0,2,2,0,4,1,1,0,0,1,1,1,1035,0,No
0,0,0,0,0,4,0,0,0,0,0,0,0,1035,0,No
3,5,19,15,2,7,8,8,1,1,2,11,47,1035,2,No
4,1,7,10,2,5,5,5,0,0,2,11,47,1035,0,No
0,0,0,0,0,4,0,0,0,0,0,0,0,800,0,No
1,2,7,11,2,5,2,1,-7,0,4,17,56,696,0,No
0,0,0,0,0,4,0,0,0,0,0,0,0,1035,0,No
1,9,20,7,3,6,1,1,-5,0,2,11,47,769,2,No
0,0,0,0,0,4,0,0,0,0,0,0,0,800,0,No
1,4,9,9,2,5,1,1,-7,0,2,11,47,1035,1,No
0,0,0,0,0,4,0,0,0,0,0,0,0,800,0,No
1,3,5,8,2,5,1,1,-6,0,2,11,47,800,1,No
0,0,0,0,0,4,0,0,0,0,0,0,0,800,0,No
1,2,7,10,2,8,2,2,-6,0,2,11,47,800,1,No
0,0,0,0,0,4,0,0,0,0,0,0,0,1035,0,No
0,0,0,4,1,4,2,2,0,0,2,11,47,1035,0,No
2,13,17,127,1,1,127,127,127,127,2,11,47,6,0,No
1,3,5,63,2,5,20,20,-23,0,2,11,47,1035,0,No
0,0,0,0,0,4,0,0,0,0,0,0,0,800,0,No
1,3,7,64,2,9,26,26,-12,0,2,11,47,794,0,No
0,0,0,7,1,4,3,3,-1,0,2,11,47,1035,0,No
1,2,2,22,2,3,7,7,-8,0,2,11,47,336,0,No
0,0,0,0,0,4,0,0,0,0,0,0,0,1035,0,No
1,2,3,8,2,3,1,1,-6,0,2,11,47,336,0,No
0,0,0,0,0,5,0,0,0,0,0,0,0,1035,0,No
3,13,23,8,2,7,1,1,-6,0,2,11,47,706,0,No
1,3,24,23,2,7,13,13,3,3,3,5,7,699,0,No
0,0,0,0,0,4,0,0,0,0,0,0,0,1200,0,No
12,2,58,0,0,7,0,0,0,0,0,0,0,756,0,No
0,0,0,0,0,4,0,0,0,0,0,0,0,1200,0,No
0,0,0,0,0,5,0,0,0,0,0,0,0,1200,0,No
1,2,1,0,0,4,0,0,0,0,0,0,0,769,1,No
1,7,18,0,0,5,0,0,0,0,0,0,0,769,1,No
0,0,0,0,0,1,0,0,0,0,0,0,0,338,1,No
1,1,1,0,1,6,0,0,0,0,0,0,0,699,0,No
17,4,17,0,0,3,0,0,0,0,0,0,0,252,0,No
4,3,4,0,0,4,0,0,0,0,0,0,0,283,0,No
2,2,2,0,0,5,0,0,0,0,0,0,0,800,2,No
2,2,2,0,0,5,0,0,0,0,0,0,0,1200,0,No
16,1,42,0,1,5,0,0,0,0,0,0,0,1154,0,No
1,0,1,0,0,4,0,0,0,0,0,0,0,1239,0,Yes
1,1,1,5,0,4,3,2,1,1,5,10,14,591,0,No
4,2,4,0,0,2,0,0,0,0,0,0,0,339,0,No
0,0,0,0,0,6,0,0,0,0,0,0,0,1200,0,No
10,21,62,28,1,6,18,9,8,7,5,10,14,339,10,Yes
11,0,21,0,0,2,0,0,0,0,0,0,0,246,2,No
22,10,97,0,0,8,0,0,0,0,0,0,0,1112,40,No
3,5,9,42,0,5,38,33,34,33,6,12,17,317,0,No
2,7,11,0,2,4,0,0,0,0,0,0,0,295,0,Yes
2,5,10,0,0,3,0,0,0,0,0,0,0,339,1,Yes
20,26,55,0,5,9,0,0,0,0,0,0,0,1177,5,Yes
0,0,0,0,0,3,0,0,0,0,0,0,0,1200,0,No
4,4,7,0,1,4,0,0,0,0,0,0,0,792,1,Yes
1,0,1,0,2,3,0,0,0,0,0,0,0,1200,0,No
2,2,5,0,1,3,0,0,0,0,0,0,0,800,2,No
3,5,12,0,0,4,0,0,0,0,0,0,0,668,1,No
1,0,1,0,1,3,0,0,0,0,0,0,0,1200,0,No
0,0,0,0,0,3,0,0,0,0,0,0,0,1200,0,No
4,5,5,0,1,4,0,0,0,0,0,0,0,800,0,No
0,0,0,0,0,4,0,0,0,0,0,0,0,800,0,No
2,12,11,0,0,4,0,0,0,0,0,0,0,594,1,No
0,0,0,0,0,3,0,0,0,0,0,0,0,800,1,No
2,1,2,0,0,5,0,0,0,0,0,0,0,594,0,No
0,1,0,0,0,4,0,0,0,0,0,0,0,800,0,No
6,17,36,0,2,5,0,0,0,0,0,0,0,800,4,Yes
1,2,10,0,1,2,0,0,0,0,0,0,0,569,0,No
6,22,44,0,2,5,0,0,0,0,0,0,0,800,5,Yes
4,11,15,0,0,4,0,0,0,0,0,0,0,1239,6,Yes
2,7,3,0,0,4,0,0,0,0,0,0,0,1018,0,Yes
9,15,17,0,2,7,0,0,0,0,0,0,0,1164,2,Yes
13,22,36,0,2,9,0,0,0,0,0,0,0,1179,4,Yes
5,13,11,1,2,6,0,0,-1,0,2,11,47,1191,0,Yes
10,14,21,0,1,6,0,0,0,0,0,0,0,961,4,Yes
6,9,10,0,1,6,0,0,0,0,0,0,0,696,3,Yes
15,18,24,0,3,7,0,0,0,0,0,0,0,756,2,Yes
16,21,40,0,1,7,0,0,0,0,0,0,0,594,7,Yes
9,30,30,0,2,8,0,0,0,0,0,0,0,1177,1,Yes
11,28,31,26,1,7,22,22,18,18,1,2,3,1168,0,Yes
5,13,11,0,1,6,0,0,0,0,0,0,0,1196,0,Yes
18,30,53,0,2,7,0,0,0,0,0,0,0,1073,7,Yes
1,0,1,0,0,4,0,0,0,0,0,0,0,1239,0,No
39,33,70,106,4,8,63,55,20,47,2,5,6,1206,9,Yes
8,13,15,0,0,7,0,0,0,0,0,0,0,686,0,Yes
5,13,11,0,1,7,0,0,0,0,0,0,0,874,0,Yes
9,9,9,0,0,5,0,0,0,0,0,0,0,689,0,Yes
14,38,152,0,2,7,0,0,0,0,0,0,0,1167,9,Yes
2,2,2,0,0,4,0,0,0,0,0,0,0,1164,0,No
4,9,31,0,0,6,0,0,0,0,0,0,0,1179,0,No
4,6,7,11,1,4,5,5,-1,0,2,11,47,1191,0,Yes
3,2,3,0,0,5,0,0,0,0,0,0,0,696,0,Yes
3,15,29,0,0,5,0,0,0,0,0,0,0,755,0,No
7,11,23,0,0,5,0,0,0,0,0,0,0,594,1,No
13,23,57,0,2,6,0,0,0,0,0,0,0,1177,0,Yes
6,25,54,0,1,6,0,0,0,0,0,0,0,1189,5,Yes
4,10,9,0,0,4,0,0,0,0,0,0,0,1191,0,Yes
7,25,50,0,0,8,0,0,0,0,0,0,0,1077,1,Yes
8,0,10,0,0,4,0,0,0,0,0,0,0,1206,0,No
12,32,55,0,3,10,0,0,0,0,0,0,0,1189,6,Yes
6,8,10,0,0,6,0,0,0,0,0,0,0,686,0,No
4,2,4,0,0,5,0,0,0,0,0,0,0,874,0,No
3,0,18,0,1,3,0,0,0,0,0,0,0,251,1,No
9,11,35,6,2,6,1,1,-4,0,4,15,51,251,1,No
5,0,5,0,0,4,0,0,0,0,0,0,0,1175,1,No
2,2,4,0,0,4,0,0,0,0,0,0,0,388,0,No
6,8,13,0,2,7,0,0,0,0,0,0,0,1015,2,Yes
1,1,3,0,0,1,0,0,0,0,0,0,0,177,0,No
1,7,9,0,2,4,0,0,0,0,0,0,0,1015,0,No
10,8,10,0,1,4,0,0,0,0,0,0,0,251,0,No
14,10,16,0,0,5,0,0,0,0,0,0,0,250,0,No
1,0,1,0,0,6,0,0,0,0,0,0,0,1239,0,No
32,0,32,0,0,3,0,0,0,0,0,0,0,251,0,No
2,4,2,0,0,5,0,0,0,0,0,0,0,1239,0,No
4,6,16,0,0,3,0,0,0,0,0,0,0,266,2,No
6,4,6,0,0,2,0,0,0,0,0,0,0,245,0,No
8,10,22,0,1,4,0,0,0,0,0,0,0,246,0,No
14,9,15,0,0,3,0,0,0,0,0,0,0,245,0,Yes
11,10,11,0,0,5,0,0,0,0,0,0,0,250,0,No
14,7,14,0,0,2,0,0,0,0,0,0,0,244,0,Yes
6,11,21,0,0,4,0,0,0,0,0,0,0,247,0,No
16,17,24,0,0,5,0,0,0,0,0,0,0,240,0,Yes
7,5,10,0,0,2,0,0,0,0,0,0,0,245,0,No
26,10,26,0,1,4,0,0,0,0,0,0,0,241,0,Yes
5,4,5,0,1,6,0,0,0,0,0,0,0,1239,0,No
4,5,10,0,0,1,0,0,0,0,0,0,0,238,1,Yes
6,2,6,0,0,7,0,0,0,0,0,0,0,675,3,No
6,2,6,0,0,7,0,0,0,0,0,0,0,675,6,No
1,1,1,0,1,6,0,0,0,0,0,0,0,1200,0,No
15,3,20,0,0,6,0,0,0,0,0,0,0,692,0,No
7,22,27,0,1,4,0,0,0,0,0,0,0,276,0,Yes
6,23,67,0,2,6,0,0,0,0,0,0,0,338,1,Yes
27,51,131,0,5,9,0,0,0,0,0,0,0,800,15,Yes
3,0,3,0,0,3,0,0,0,0,0,0,0,1239,0,No
33,48,142,0,1,5,0,0,0,0,0,0,0,1167,23,Yes
10,1,41,0,0,7,0,0,0,0,0,0,0,734,8,No
5,4,57,0,3,7,0,0,0,0,0,0,0,623,6,No
3,0,38,0,0,1,0,0,0,0,0,0,0,176,9,No
13,1,16,0,2,1,0,0,0,0,0,0,0,210,0,No
8,1,18,0,0,5,0,0,0,0,0,0,0,938,1,No
4,0,8,0,0,2,0,0,0,0,0,0,0,274,4,No
0,0,0,0,0,5,0,0,0,0,0,0,0,1200,0,No
7,5,37,0,1,4,0,0,0,0,0,0,0,897,11,Yes
9,27,98,0,3,5,0,0,0,0,0,0,0,574,9,Yes
4,1,16,0,1,4,0,0,0,0,0,0,0,388,0,No
1,0,2,0,0,5,0,0,0,0,0,0,0,1200,1,No
4,10,20,0,0,4,0,0,0,0,0,0,0,800,0,No
1,0,5,0,1,1,0,0,0,0,0,0,0,183,0,No
5,1,15,0,1,2,0,0,0,0,0,0,0,225,0,No
6,1,6,0,1,3,0,0,0,0,0,0,0,225,0,No
5,0,5,0,0,4,0,0,0,0,0,0,0,1239,0,No
2,1,4,0,0,4,0,0,0,0,0,0,0,671,0,No
14,0,18,0,1,5,0,0,0,0,0,0,0,623,0,No
2,0,6,0,0,4,0,0,0,0,0,0,0,623,1,No
3,2,4,0,1,5,0,0,0,0,0,0,0,855,3,No
8,3,8,0,1,4,0,0,0,0,0,0,0,317,0,Yes
0,1,0,0,1,5,0,0,0,0,0,0,0,800,0,No
3,0,3,0,1,6,0,0,0,0,0,0,0,1200,0,No
9,1,9,0,1,4,0,0,0,0,0,0,0,689,0,No
1,8,3,0,1,4,0,0,0,0,0,0,0,255,2,Yes
0,0,0,0,0,3,0,0,0,0,0,0,0,1200,0,No
5,9,5,0,0,4,0,0,0,0,0,0,0,317,0,No
11,11,11,0,0,3,0,0,0,0,0,0,0,317,0,Yes
4,7,4,0,0,3,0,0,0,0,0,0,0,317,0,No
13,9,13,0,1,8,0,0,0,0,0,0,0,707,0,No
15,11,19,4,5,7,2,2,0,0,1,1,1,724,0,Yes
10,7,10,0,1,7,0,0,0,0,0,0,0,724,1,No
26,15,82,2,4,7,2,2,2,2,1,1,1,713,15,Yes
3,1,5,0,1,7,0,0,0,0,0,0,0,713,3,No
1,1,1,0,0,3,0,0,0,0,0,0,0,800,0,No
13,3,15,0,0,5,0,0,0,0,0,0,0,701,2,No
17,2,26,0,0,5,0,0,0,0,0,0,0,701,1,No
1,0,1,0,0,3,0,0,0,0,0,0,0,800,0,No
4,0,4,0,0,3,0,0,0,0,0,0,0,800,0,No
18,4,21,0,0,5,0,0,0,0,0,0,0,701,2,No
22,7,40,0,0,5,0,0,0,0,0,0,0,701,1,Yes
2,3,2,0,0,3,0,0,0,0,0,0,0,713,0,No
1,1,1,0,1,4,0,0,0,0,0,0,0,800,0,No
1,3,1,0,0,5,0,0,0,0,0,0,0,713,0,No
1,2,2,0,1,4,0,0,0,0,0,0,0,713,0,No
1,2,1,0,0,3,0,0,0,0,0,0,0,713,0,No
1,0,1,0,0,3,0,0,0,0,0,0,0,800,1,No
1,0,1,0,0,3,0,0,0,0,0,0,0,800,1,No
1,4,1,0,0,5,0,0,0,0,0,0,0,713,0,No
2,0,6,0,0,3,0,0,0,0,0,0,0,716,2,No
6,0,19,0,1,3,0,0,0,0,0,0,0,716,1,No
3,0,9,0,0,1,0,0,0,0,0,0,0,245,5,No
2,0,9,0,1,3,0,0,0,0,0,0,0,716,2,No
5,0,17,0,0,3,0,0,0,0,0,0,0,716,1,No
1,0,10,0,0,1,0,0,0,0,0,0,0,355,5,No
4,0,5,0,0,2,0,0,0,0,0,0,0,308,1,No
1,0,2,0,0,4,0,0,0,0,0,0,0,1301,0,No
2,0,2,0,0,4,0,0,0,0,0,0,0,677,0,No
3,4,16,0,1,3,0,0,0,0,0,0,0,309,4,No
8,6,9,0,2,2,0,0,0,0,0,0,0,328,0,No
13,8,17,0,0,3,0,0,0,0,0,0,0,328,0,No
2,3,2,0,0,4,0,0,0,0,0,0,0,1301,0,No
5,6,15,6,1,3,6,6,6,6,4,30,67,328,0,No
5,3,5,0,0,3,0,0,0,0,0,0,0,323,0,No
9,8,24,0,1,4,0,0,0,0,0,0,0,324,0,No
12,6,13,0,2,3,0,0,0,0,0,0,0,327,0,No
10,9,12,0,1,3,0,0,0,0,0,0,0,327,0,No
13,5,13,1,1,2,1,1,1,1,2,3,5,329,0,No
6,8,13,0,1,3,0,0,0,0,0,0,0,323,0,No
1,0,1,0,0,4,0,0,0,0,0,0,0,1301,0,No
4,2,8,0,1,5,0,0,0,0,0,0,0,1301,0,No
15,15,35,0,2,4,0,0,0,0,0,0,0,324,1,No
6,3,9,0,0,3,0,0,0,0,0,0,0,322,0,No
25,8,25,1,2,4,1,1,1,1,2,3,5,329,0,No
5,3,5,0,1,1,0,0,0,0,0,0,0,285,0,No
2,3,2,8,1,6,0,0,-8,0,4,19,27,1301,0,No
3,0,3,10,0,4,5,5,0,0,4,22,49,1301,0,No
0,0,0,0,0,6,0,0,0,0,0,0,0,862,1,No
0,0,0,0,0,5,0,0,0,0,0,0,0,862,0,No
0,1,0,0,0,4,0,0,0,0,0,0,0,862,0,No
0,0,0,0,0,4,0,0,0,0,0,0,0,862,0,No
35,1,42,36,0,5,18,13,0,8,3,15,24,1217,0,No
11,1,12,0,0,4,0,0,0,0,0,0,0,1217,0,No
11,0,12,0,0,5,0,0,0,0,0,0,0,1301,2,No
2,1,2,0,0,4,0,0,0,0,0,0,0,1301,0,No
25,0,38,0,0,4,0,0,0,0,0,0,0,1237,0,No
15,1,26,0,0,5,0,0,0,0,0,0,0,1217,2,No
2,1,2,0,0,5,0,0,0,0,0,0,0,862,0,No
1,0,1,0,0,4,0,0,0,0,0,0,0,656,0,No
10,3,10,2,0,5,1,1,0,0,2,2,2,656,0,No
12,1,14,0,0,3,0,0,0,0,0,0,0,631,0,No
10,3,10,0,0,5,0,0,0,0,0,0,0,656,0,No
0,0,0,0,0,4,0,0,0,0,0,0,0,1262,1,No
7,1,11,0,0,4,0,0,0,0,0,0,0,1148,0,No
3,1,3,0,0,4,0,0,0,0,0,0,0,1258,0,No
5,1,6,0,0,4,0,0,0,0,0,0,0,1301,1,No
29,1,51,0,0,5,0,0,0,0,0,0,0,1148,1,No
3,1,3,0,0,5,0,0,0,0,0,0,0,1301,0,No
1,0,1,0,0,4,0,0,0,0,0,0,0,1262,0,No
8,3,8,0,1,3,0,0,0,0,0,0,0,328,0,No
13,7,13,0,1,3,0,0,0,0,0,0,0,328,0,No
2,1,2,0,0,4,0,0,0,0,0,0,0,1301,0,No
0,0,0,0,0,5,0,0,0,0,0,0,0,1262,0,No
5,3,5,13,1,3,9,6,5,3,6,34,71,328,1,No
5,1,5,0,0,4,0,0,0,0,0,0,0,323,0,No
7,3,7,0,1,3,0,0,0,0,0,0,0,324,0,No
12,3,12,0,1,3,0,0,0,0,0,0,0,327,0,No
2,0,2,0,0,5,0,0,0,0,0,0,0,1301,0,No
10,6,10,0,0,3,0,0,0,0,0,0,0,327,0,No
13,3,13,0,0,3,0,0,0,0,0,0,0,329,0,Yes
5,3,5,0,0,3,0,0,0,0,0,0,0,323,0,No
14,8,14,0,0,4,0,0,0,0,0,0,0,324,0,No
6,1,6,0,0,3,0,0,0,0,0,0,0,323,1,No
25,6,25,0,1,5,0,0,0,0,0,0,0,329,0,Yes
5,2,5,0,1,5,0,0,0,0,0,0,0,1301,0,No
2,2,2,10,1,4,0,0,-10,0,4,19,27,328,0,No
20,0,29,22,0,6,11,8,0,5,3,15,24,1268,1,No
10,1,14,0,0,4,0,0,0,0,0,0,0,1139,0,No
2,1,2,0,0,4,0,0,0,0,0,0,0,1301,0,No
2,2,2,0,0,4,0,0,0,0,0,0,0,1301,0,No
8,1,13,0,0,5,0,0,0,0,0,0,0,1301,2,No
6,1,8,0,0,2,0,0,0,0,0,0,0,260,0,No
9,1,16,0,0,2,0,0,0,0,0,0,0,260,1,No
4,1,4,0,0,4,0,0,0,0,0,0,0,1301,0,No
14,2,14,0,0,4,0,0,0,0,0,0,0,1239,0,No
3,1,3,0,0,4,0,0,0,0,0,0,0,1301,2,No
23,3,31,0,0,7,0,0,0,0,0,0,0,1241,2,No
5,1,7,0,1,5,0,0,0,0,0,0,0,677,0,No
3,1,3,0,0,5,0,0,0,0,0,0,0,1301,0,No
2,0,2,0,0,4,0,0,0,0,0,0,0,1258,0,No
3,1,3,0,0,1,0,0,0,0,0,0,0,329,0,No
8,2,10,116,2,2,103,87,90,87,11,58,119,22,0,No
3,1,3,0,0,4,0,0,0,0,0,0,0,1301,0,No
4,2,4,0,0,4,0,0,0,0,0,0,0,1301,0,No
3,1,3,0,0,4,0,0,0,0,0,0,0,1301,0,No
16,3,16,0,0,5,0,0,0,0,0,0,0,1246,0,No
11,2,27,0,1,4,0,0,0,0,0,0,0,381,2,No
12,0,12,0,0,5,0,0,0,0,0,0,0,1301,2,No
24,4,27,0,0,6,0,0,0,0,0,0,0,758,0,No
16,1,18,0,0,5,0,0,0,0,0,0,0,751,1,No
2,2,2,0,0,4,0,0,0,0,0,0,0,1301,0,No
6,2,6,0,0,4,0,0,0,0,0,0,0,1301,0,No
3,1,3,0,0,1,0,0,0,0,0,0,0,329,0,No
6,1,9,0,0,2,0,0,0,0,0,0,0,308,1,No
10,2,10,0,0,5,0,0,0,0,0,0,0,653,0,No
18,3,18,0,0,4,0,0,0,0,0,0,0,1139,0,No
2,0,2,0,0,4,0,0,0,0,0,0,0,862,0,No
24,4,32,0,0,5,0,0,0,0,0,0,0,656,0,No
42,4,42,0,1,4,0,0,0,0,0,0,0,1237,0,No
30,0,37,0,1,5,0,0,0,0,0,0,0,1230,1,No
12,0,16,0,0,5,0,0,0,0,0,0,0,1301,0,No
18,1,19,2,0,6,1,1,0,0,4,22,49,1301,0,No
3,1,3,0,0,1,0,0,0,0,0,0,0,329,0,No
2,2,2,0,0,4,0,0,0,0,0,0,0,1301,0,No
18,0,18,0,0,4,0,0,0,0,0,0,0,862,0,No
2,0,2,0,0,4,0,0,0,0,0,0,0,1139,0,No
12,1,16,0,0,6,0,0,0,0,0,0,0,1139,0,No
1,0,1,0,0,5,0,0,0,0,0,0,0,1301,0,No
10,3,13,0,0,5,0,0,0,0,0,0,0,748,1,No
25,0,31,4,0,5,2,2,0,0,4,22,49,1268,1,No
3,1,3,0,0,4,0,0,0,0,0,0,0,1301,0,No
2,0,2,0,0,5,0,0,0,0,0,0,0,1301,0,No
4,1,4,0,0,4,0,0,0,0,0,0,0,862,0,No
20,2,21,0,0,4,0,0,0,0,0,0,0,764,0,No
20,1,27,0,0,6,0,0,0,0,0,0,0,764,2,No
0,1,0,0,0,4,0,0,0,0,0,0,0,1262,1,No
22,1,26,0,0,5,0,0,0,0,0,0,0,1262,0,No
1,0,1,0,0,5,0,0,0,0,0,0,0,1262,1,No
2,0,4,0,0,4,0,0,0,0,0,0,0,1301,3,No
1,0,1,248,2,5,21,18,-206,1,12,71,143,1301,1,No
7,4,10,84,2,3,52,47,20,23,12,71,143,615,0,No
2,0,2,0,0,5,0,0,0,0,0,0,0,1262,2,No
1,0,1,0,0,6,0,0,0,0,0,0,0,1262,1,No
15,1,17,0,0,5,0,0,0,0,0,0,0,1301,1,No
7,1,7,0,0,4,0,0,0,0,0,0,0,1301,1,No
1,0,1,0,0,4,0,0,0,0,0,0,0,1262,0,No
1,0,1,0,0,5,0,0,0,0,0,0,0,1262,1,No
2,0,2,0,2,3,0,0,0,0,0,0,0,588,1,No
5,0,17,0,2,7,0,0,0,0,0,0,0,1262,9,No
1,0,1,0,0,5,0,0,0,0,0,0,0,1262,1,No
0,0,0,0,1,2,0,0,0,0,0,0,0,282,0,No
48,1,52,0,0,6,0,0,0,0,0,0,0,831,0,No
2,0,2,0,0,5,0,0,0,0,0,0,0,1262,1,No
0,0,0,0,0,4,0,0,0,0,0,0,0,1262,0,No
2,0,3,0,0,5,0,0,0,0,0,0,0,1262,1,No
0,0,0,3,0,4,2,2,1,1,2,6,11,1262,0,No
1,0,1,0,0,5,0,0,0,0,0,0,0,1262,1,No
1,0,1,0,0,5,0,0,0,0,0,0,0,1262,1,No
2,4,2,0,1,4,0,0,0,0,0,0,0,862,1,No
10,2,11,0,0,8,0,0,0,0,0,0,0,1262,0,No
3,0,6,1,3,4,1,1,1,1,2,2,2,1246,1,Yes
2,0,9,0,0,4,0,0,0,0,0,0,0,664,0,No
1,0,1,0,0,4,0,0,0,0,0,0,0,1262,0,No
2,0,5,0,0,5,0,0,0,0,0,0,0,862,3,No
0,0,0,0,0,4,0,0,0,0,0,0,0,1262,0,No
1,0,1,0,0,5,0,0,0,0,0,0,0,862,1,No
0,0,0,0,0,4,0,0,0,0,0,0,0,862,0,No
0,0,0,0,0,4,0,0,0,0,0,0,0,1262,0,No
11,11,53,2,0,6,1,1,0,0,4,22,49,744,0,Yes
17,10,34,9,2,4,8,8,7,7,4,30,67,313,0,No
2,4,18,227,2,2,192,140,157,140,15,80,168,22,2,No
7,1,14,0,2,6,0,0,0,0,0,0,0,1246,0,No
1,1,11,2,2,4,1,1,0,0,4,22,49,1246,2,No
8,1,8,0,0,5,0,0,0,0,0,0,0,1246,0,No
8,14,18,0,0,6,0,0,0,0,0,0,0,1262,0,Yes
1,1,8,0,0,3,0,0,0,0,0,0,0,1125,1,Yes
13,31,14,0,2,7,0,0,0,0,0,0,0,1262,0,No
4,4,10,0,1,6,0,0,0,0,0,0,0,754,2,Yes
3,0,3,0,0,2,0,0,0,0,0,0,0,463,0,No
0,0,0,0,0,2,0,0,0,0,0,0,0,194,0,No
0,0,0,0,0,4,0,0,0,0,0,0,0,1262,0,No
3,1,4,0,0,5,0,0,0,0,0,0,0,862,2,No
6,1,10,2,0,4,1,1,0,0,4,22,49,643,0,No
3,0,3,0,0,2,0,0,0,0,0,0,0,300,1,No
2,0,2,0,0,5,0,0,0,0,0,0,0,862,0,No
10,0,21,0,2,6,0,0,0,0,0,0,0,1016,3,No
7,2,12,0,0,4,0,0,0,0,0,0,0,1021,1,No
1,1,4,0,0,3,0,0,0,0,0,0,0,1301,1,No
1,6,3,0,1,4,0,0,0,0,0,0,0,931,0,No
13,2,13,4,0,5,2,2,0,0,4,22,49,1153,2,No
2,0,3,0,0,3,0,0,0,0,0,0,0,1301,0,No
7,0,12,2,0,5,1,1,0,0,4,22,49,861,1,No
2,3,12,0,2,6,0,0,0,0,0,0,0,979,2,No
2,0,7,0,1,5,0,0,0,0,0,0,0,981,0,No
7,0,7,4,0,3,2,2,0,0,4,22,49,1301,0,No
9,6,34,0,0,4,0,0,0,0,0,0,0,644,2,No
2,0,8,0,0,6,0,0,0,0,0,0,0,1090,0,No
8,3,28,0,0,4,0,0,0,0,0,0,0,643,2,No
2,0,4,0,0,1,0,0,0,0,0,0,0,300,0,No
4,8,4,0,0,4,0,0,0,0,0,0,0,1262,0,No
3,7,8,0,1,6,0,0,0,0,0,0,0,861,1,No
2,2,2,0,0,5,0,0,0,0,0,0,0,931,0,No
10,12,29,2,1,5,1,1,0,0,4,22,49,761,2,Yes
1,1,1,0,1,5,0,0,0,0,0,0,0,1262,0,No
9,4,16,0,0,7,0,0,0,0,0,0,0,1262,2,Yes
6,6,7,0,0,2,0,0,0,0,0,0,0,260,1,Yes
4,2,4,0,0,3,0,0,0,0,0,0,0,260,0,Yes
36,20,54,45,2,7,26,26,7,7,4,30,67,1262,16,Yes
4,4,7,0,1,6,0,0,0,0,0,0,0,1156,4,No
3,5,13,0,0,2,0,0,0,0,0,0,0,266,0,No
13,16,42,5,2,7,2,2,-1,0,4,22,49,1237,3,Yes
4,7,12,0,2,6,0,0,0,0,0,0,0,1237,1,No
11,3,16,2,3,6,1,1,0,0,4,22,49,1210,1,No
2,8,5,1,2,5,0,0,-1,0,4,22,49,656,0,Yes
0,0,0,0,0,3,0,0,0,0,0,0,0,1262,0,Yes
0,0,0,0,0,3,0,0,0,0,0,0,0,862,0,No
0,0,0,0,0,1,0,0,0,0,0,0,0,131,0,No
0,0,0,0,0,3,0,0,0,0,0,0,0,1262,0,No
0,1,0,0,0,2,0,0,0,0,0,0,0,303,2,No
11,10,15,0,2,7,0,0,0,0,0,0,0,1261,9,Yes
0,2,0,0,0,5,0,0,0,0,0,0,0,1260,1,No
4,5,4,0,1,6,0,0,0,0,0,0,0,1210,2,No
11,14,22,50,5,7,38,35,26,24,8,49,94,751,7,Yes
0,3,0,0,1,6,0,0,0,0,0,0,0,751,0,No
7,14,27,0,2,7,0,0,0,0,0,0,0,761,6,Yes
0,2,0,0,1,4,0,0,0,0,0,0,0,931,0,No
3,3,3,0,0,4,0,0,0,0,0,0,0,643,0,No
39,19,75,0,2,7,0,0,0,0,0,0,0,643,3,Yes
11,17,70,57,3,6,29,28,1,1,7,31,74,631,3,No
19,17,43,274,5,8,89,87,-96,1,12,71,143,1262,5,Yes
5,8,16,2,8,7,1,1,0,0,4,22,49,1231,3,No
35,13,43,0,3,7,0,0,0,0,0,0,0,1262,15,Yes
13,10,36,6,1,5,1,1,-4,0,4,22,49,644,3,No
5,6,9,0,3,7,0,0,0,0,0,0,0,1210,1,Yes
4,5,6,0,0,4,0,0,0,0,0,0,0,394,1,No
1,2,1,0,0,5,0,0,0,0,0,0,0,931,0,No
8,9,14,2,2,7,1,1,0,0,4,19,27,1262,5,Yes
1,2,1,0,0,6,0,0,0,0,0,0,0,861,0,No
19,14,35,2,2,7,1,1,0,0,4,22,49,1255,2,Yes
10,11,41,2,2,8,1,1,0,0,4,22,49,1237,6,No
5,5,8,0,1,6,0,0,0,0,0,0,0,670,2,No
1,5,2,0,1,6,0,0,0,0,0,0,0,861,0,No
11,14,19,0,3,7,0,0,0,0,0,0,0,1126,2,Yes
11,12,16,0,1,7,0,0,0,0,0,0,0,1262,0,Yes
24,13,37,0,1,7,0,0,0,0,0,0,0,761,8,Yes
10,8,18,0,3,7,0,0,0,0,0,0,0,1210,4,Yes
3,5,5,0,0,4,0,0,0,0,0,0,0,394,1,No
2,5,11,0,0,5,0,0,0,0,0,0,0,656,3,Yes
2,2,2,0,0,5,0,0,0,0,0,0,0,931,0,No
7,10,11,0,3,7,0,0,0,0,0,0,0,1262,4,Yes
2,1,2,0,0,5,0,0,0,0,0,0,0,931,0,No
4,7,12,0,1,6,0,0,0,0,0,0,0,931,1,No
1,2,1,0,0,6,0,0,0,0,0,0,0,1262,0,No
12,15,51,2,1,3,1,1,0,0,4,22,49,342,0,No
17,9,23,0,4,7,0,0,0,0,0,0,0,754,1,Yes
0,3,0,0,0,2,0,0,0,0,0,0,0,194,0,No
0,3,0,0,0,5,0,0,0,0,0,0,0,656,0,No
8,8,9,0,0,3,0,0,0,0,0,0,0,260,1,Yes
8,19,38,2,1,7,1,1,0,0,4,22,49,846,2,No
9,8,13,0,2,6,0,0,0,0,0,0,0,929,0,No
8,4,18,246,2,2,244,233,242,233,9,54,121,22,3,No
2,0,2,0,0,4,0,0,0,0,0,0,0,1262,0,No
21,11,46,502,4,3,485,316,468,316,14,74,149,22,1,No
11,13,29,0,1,5,0,0,0,0,0,0,0,846,0,Yes
10,10,19,0,2,7,0,0,0,0,0,0,0,1262,6,No
15,15,23,6,3,7,2,2,-2,0,3,9,25,812,3,No
14,15,34,0,1,7,0,0,0,0,0,0,0,818,1,No
11,12,20,0,2,7,0,0,0,0,0,0,0,1262,6,No
6,15,27,0,2,7,0,0,0,0,0,0,0,656,2,No
7,11,11,0,0,7,0,0,0,0,0,0,0,656,1,No
20,19,93,0,9,8,0,0,0,0,0,0,0,656,3,No
5,5,15,0,0,7,0,0,0,0,0,0,0,770,1,No
6,13,18,0,2,7,0,0,0,0,0,0,0,846,2,No
19,10,36,0,0,3,0,0,0,0,0,0,0,394,0,Yes
6,7,6,2,2,7,0,0,-2,0,4,22,49,747,3,No
5,3,5,28,1,4,26,26,24,24,4,19,27,342,1,No
11,12,15,0,2,4,0,0,0,0,0,0,0,342,1,Yes
6,7,11,0,0,7,0,0,0,0,0,0,0,770,1,No
7,7,7,63,0,5,46,46,29,29,1,6,11,747,5,No
9,15,10,133,2,6,120,120,107,107,1,6,11,747,4,No
12,12,22,0,2,7,0,0,0,0,0,0,0,1262,6,No
14,3,28,0,0,3,0,0,0,0,0,0,0,342,4,No
3,6,4,0,2,5,0,0,0,0,0,0,0,394,0,No
10,1,14,207,2,2,187,110,167,110,8,41,97,22,0,No
10,15,24,2,0,6,1,1,0,0,4,22,49,656,5,Yes
16,14,26,0,2,7,0,0,0,0,0,0,0,1262,6,No
1,5,2,0,0,6,0,0,0,0,0,0,0,758,0,Yes
6,5,8,0,1,6,0,0,0,0,0,0,0,1262,1,No
14,21,32,0,5,4,0,0,0,0,0,0,0,342,2,Yes
10,11,24,0,2,6,0,0,0,0,0,0,0,929,0,No
7,6,7,0,1,6,0,0,0,0,0,0,0,1301,0,Yes
3,2,3,0,2,6,0,0,0,0,0,0,0,761,0,No
2,2,2,0,1,5,0,0,0,0,0,0,0,1058,0,No
1,1,1,0,0,5,0,0,0,0,0,0,0,1301,0,No
6,2,6,0,0,6,0,0,0,0,0,0,0,1210,0,No
14,12,28,0,3,6,0,0,0,0,0,0,0,1237,1,No
2,0,2,0,0,4,0,0,0,0,0,0,0,1262,0,No
0,0,0,0,0,5,0,0,0,0,0,0,0,1262,1,No
8,7,11,22,1,6,14,14,6,6,4,30,67,1210,0,No
6,5,6,6,1,6,0,0,-6,0,4,19,27,751,0,No
7,7,16,0,3,7,0,0,0,0,0,0,0,818,1,No
11,5,12,0,1,6,0,0,0,0,0,0,0,643,0,Yes
7,7,10,0,0,6,0,0,0,0,0,0,0,1231,0,No
11,10,11,0,0,7,0,0,0,0,0,0,0,1231,0,Yes
19,11,32,0,1,7,0,0,0,0,0,0,0,1301,0,Yes
17,13,23,0,0,8,0,0,0,0,0,0,0,1126,0,Yes
5,5,5,0,0,8,0,0,0,0,0,0,0,744,0,No
14,13,16,0,1,7,0,0,0,0,0,0,0,1252,0,Yes
2,4,2,0,0,6,0,0,0,0,0,0,0,1058,0,No
4,0,4,0,0,1,0,0,0,0,0,0,0,643,0,No
2,1,3,0,1,1,0,0,0,0,0,0,0,282,0,No
2,1,3,0,1,3,0,0,0,0,0,0,0,981,0,No
2,0,2,0,1,3,0,0,0,0,0,0,0,981,0,No
4,1,4,0,1,5,0,0,0,0,0,0,0,751,1,No
3,1,4,0,0,1,0,0,0,0,0,0,0,260,0,No
1,2,10,0,1,4,0,0,0,0,0,0,0,748,0,No
0,0,0,0,0,4,0,0,0,0,0,0,0,1262,0,No
0,0,0,0,0,4,0,0,0,0,0,0,0,1262,0,No
3,0,3,0,0,5,0,0,0,0,0,0,0,751,0,Yes
1,0,2,30,1,4,20,20,10,10,4,30,67,1262,0,No
1,0,2,34,1,5,17,17,0,0,4,30,67,751,0,No
1,1,2,0,0,4,0,0,0,0,0,0,0,751,0,No
1,2,3,0,0,4,0,0,0,0,0,0,0,751,0,No
1,0,1,0,0,4,0,0,0,0,0,0,0,1262,0,No
3,0,3,0,1,5,0,0,0,0,0,0,0,1301,3,No
22,3,53,0,2,4,0,0,0,0,0,0,0,670,0,No
5,1,16,0,1,7,0,0,0,0,0,0,0,1210,1,No
2,0,2,0,0,3,0,0,0,0,0,0,0,1020,0,Yes
5,1,5,0,2,7,0,0,0,0,0,0,0,1210,1,No
1,1,1,0,0,4,0,0,0,0,0,0,0,1210,0,No
3,1,3,0,1,5,0,0,0,0,0,0,0,818,0,No
2,1,3,0,0,4,0,0,0,0,0,0,0,1210,0,No
5,1,8,0,2,7,0,0,0,0,0,0,0,1210,2,No
1,0,1,0,0,4,0,0,0,0,0,0,0,1262,0,No
6,1,32,0,0,6,0,0,0,0,0,0,0,818,1,No
4,1,5,0,0,7,0,0,0,0,0,0,0,818,3,No
9,1,23,0,1,8,0,0,0,0,0,0,0,818,6,No
19,0,35,0,2,6,0,0,0,0,0,0,0,818,1,No
0,0,0,0,0,3,0,0,0,0,0,0,0,1262,0,No
8,1,14,0,0,6,0,0,0,0,0,0,0,818,0,No
1,0,1,0,2,1,0,0,0,0,0,0,0,292,0,No
9,0,30,0,0,3,0,0,0,0,0,0,0,631,1,No
16,1,20,0,0,3,0,0,0,0,0,0,0,345,4,No
1,0,1,0,0,5,0,0,0,0,0,0,0,862,0,No
6,4,7,0,0,4,0,0,0,0,0,0,0,747,0,No
1,1,1,0,0,4,0,0,0,0,0,0,0,862,0,No
2,0,2,0,0,3,0,0,0,0,0,0,0,253,0,No
1,3,12,46,1,3,38,38,30,30,4,30,67,623,2,No
0,1,0,0,1,2,0,0,0,0,0,0,0,623,1,No
14,37,134,53,6,8,32,28,11,17,2,12,30,635,8,Yes
11,8,86,0,1,5,0,0,0,0,0,0,0,400,1,No
2,0,14,0,0,3,0,0,0,0,0,0,0,1168,8,No
7,11,13,0,2,7,0,0,0,0,0,0,0,1177,3,No
10,23,37,0,0,1,0,0,0,0,0,0,0,239,10,No
2,7,20,0,2,5,0,0,0,0,0,0,0,609,3,No
13,14,34,3,3,8,0,0,-3,0,4,22,49,854,6,No
1,4,9,0,0,5,0,0,0,0,0,0,0,664,0,Yes
2,2,3,0,1,6,0,0,0,0,0,0,0,917,0,No
2,1,2,0,1,5,0,0,0,0,0,0,0,862,0,No
5,3,11,0,1,3,0,0,0,0,0,0,0,317,1,No
5,9,33,43,2,6,37,37,31,31,4,30,67,751,2,Yes
7,28,39,182,2,7,116,79,50,51,9,37,74,751,2,Yes
13,3,18,0,0,6,0,0,0,0,0,0,0,1255,0,No
2,0,2,0,0,3,0,0,0,0,0,0,0,1262,0,No
17,4,48,0,2,5,0,0,0,0,0,0,0,1290,3,No
25,0,42,0,1,4,0,0,0,0,0,0,0,1255,0,No
6,0,15,0,2,5,0,0,0,0,0,0,0,1301,1,No
6,1,6,11,1,6,3,3,-5,0,1,9,19,1275,0,No
9,2,9,0,1,4,0,0,0,0,0,0,0,1258,1,No
8,0,13,0,0,5,0,0,0,0,0,0,0,656,0,No
12,1,19,0,0,2,0,0,0,0,0,0,0,381,2,No
17,2,24,0,0,5,0,0,0,0,0,0,0,1246,0,No
21,5,28,7,2,5,3,3,-1,0,4,22,49,1288,3,No
8,0,10,0,0,5,0,0,0,0,0,0,0,936,0,No
8,2,8,0,1,5,0,0,0,0,0,0,0,1258,1,No
0,1,0,0,0,5,0,0,0,0,0,0,0,1255,0,No
23,4,30,0,0,5,0,0,0,0,0,0,0,1266,2,No
4,1,4,0,0,4,0,0,0,0,0,0,0,1290,0,No
44,7,49,0,0,6,0,0,0,0,0,0,0,1246,1,No
23,5,31,3,1,5,0,0,-3,0,1,5,7,758,0,No
16,1,17,0,0,5,0,0,0,0,0,0,0,751,0,No
0,1,0,0,0,4,0,0,0,0,0,0,0,1255,0,No
6,4,6,0,2,5,0,0,0,0,0,0,0,831,0,No
18,5,18,0,0,5,0,0,0,0,0,0,0,1139,0,No
13,2,27,0,0,4,0,0,0,0,0,0,0,656,1,No
6,1,8,0,0,4,0,0,0,0,0,0,0,656,0,No
5,2,7,0,0,4,0,0,0,0,0,0,0,656,0,No
8,1,8,0,0,5,0,0,0,0,0,0,0,862,0,No
0,1,0,0,0,5,0,0,0,0,0,0,0,1255,0,No
19,4,21,0,0,7,0,0,0,0,0,0,0,862,0,No
4,1,4,0,1,3,0,0,0,0,0,0,0,1301,0,No
6,2,6,0,0,4,0,0,0,0,0,0,0,1290,0,No
5,0,10,0,0,4,0,0,0,0,0,0,0,1139,0,No
4,0,4,0,0,3,0,0,0,0,0,0,0,1139,0,No
8,4,11,0,0,4,0,0,0,0,0,0,0,748,0,No
11,4,19,0,0,5,0,0,0,0,0,0,0,1255,0,Yes
5,3,7,0,0,5,0,0,0,0,0,0,0,1097,0,No
3,2,4,0,0,5,0,0,0,0,0,0,0,1301,0,No
4,3,6,0,0,5,0,0,0,0,0,0,0,1255,0,No
0,1,0,0,0,4,0,0,0,0,0,0,0,1255,0,No
0,1,0,0,0,4,0,0,0,0,0,0,0,1255,0,No
5,3,7,0,0,6,0,0,0,0,0,0,0,1255,0,Yes
0,1,0,0,0,4,0,0,0,0,0,0,0,1255,0,No
24,7,36,0,0,6,0,0,0,0,0,0,0,1225,0,No
0,0,0,0,0,3,0,0,0,0,0,0,0,1262,0,No
11,4,19,0,0,5,0,0,0,0,0,0,0,1255,0,Yes
5,3,7,0,0,5,0,0,0,0,0,0,0,1097,0,No
3,2,4,0,0,5,0,0,0,0,0,0,0,1301,0,No
4,3,6,0,0,5,0,0,0,0,0,0,0,1255,0,No
0,1,0,0,0,4,0,0,0,0,0,0,0,1255,0,No
8,3,19,0,0,2,0,0,0,0,0,0,0,381,1,No
3,2,5,0,0,5,0,0,0,0,0,0,0,1301,0,No
0,1,0,0,0,4,0,0,0,0,0,0,0,1255,0,No
5,3,8,0,0,6,0,0,0,0,0,0,0,1255,0,No
0,1,0,0,0,4,0,0,0,0,0,0,0,1255,0,No
45,13,84,0,0,5,0,0,0,0,0,0,0,1255,0,No
54,11,94,8,3,8,4,4,0,0,1,9,19,1255,1,No
11,4,19,0,0,5,0,0,0,0,0,0,0,1255,0,Yes
5,3,7,0,0,5,0,0,0,0,0,0,0,1097,0,No
3,2,4,0,0,5,0,0,0,0,0,0,0,1301,0,No
4,3,6,0,0,5,0,0,0,0,0,0,0,1255,0,No
0,1,0,0,1,4,0,0,0,0,0,0,0,1255,0,No
10,3,23,0,0,2,0,0,0,0,0,0,0,381,1,No
3,2,5,0,0,5,0,0,0,0,0,0,0,1301,0,No
0,1,0,0,1,4,0,0,0,0,0,0,0,1255,0,No
5,3,8,0,0,6,0,0,0,0,0,0,0,1255,0,No
0,1,0,0,1,4,0,0,0,0,0,0,0,1255,0,No
5,2,5,0,0,4,0,0,0,0,0,0,0,1301,0,No
5,2,5,0,0,4,0,0,0,0,0,0,0,1301,0,No
4,5,4,0,0,6,0,0,0,0,0,0,0,1301,0,No
4,3,4,0,0,6,0,0,0,0,0,0,0,1301,0,Yes
5,2,5,0,0,4,0,0,0,0,0,0,0,1301,0,No
4,2,4,0,0,4,0,0,0,0,0,0,0,1301,0,No
2,1,2,0,0,5,0,0,0,0,0,0,0,1262,0,No
4,1,4,0,0,3,0,0,0,0,0,0,0,1262,0,No
5,2,5,0,0,4,0,0,0,0,0,0,0,1301,0,No
5,4,5,0,0,4,0,0,0,0,0,0,0,1301,0,No
6,3,6,0,0,4,0,0,0,0,0,0,0,1301,0,No
5,3,5,0,0,4,0,0,0,0,0,0,0,1301,0,No
5,4,5,0,0,4,0,0,0,0,0,0,0,1301,0,No
1,0,1,0,0,4,0,0,0,0,0,0,0,1262,0,No
0,0,0,0,0,5,0,0,0,0,0,0,0,1262,0,No
4,2,4,0,0,4,0,0,0,0,0,0,0,862,0,No
8,5,8,0,1,4,0,0,0,0,0,0,0,1262,0,No
7,2,7,0,0,4,0,0,0,0,0,0,0,1301,0,Yes
7,3,7,0,0,4,0,0,0,0,0,0,0,1301,0,No
6,4,6,0,0,4,0,0,0,0,0,0,0,1301,0,No
17,8,17,0,0,6,0,0,0,0,0,0,0,1301,1,Yes
5,4,5,0,0,4,0,0,0,0,0,0,0,1301,0,No
10,3,10,0,0,4,0,0,0,0,0,0,0,1301,0,Yes
8,3,8,0,0,4,0,0,0,0,0,0,0,1301,0,No
13,5,13,0,0,6,0,0,0,0,0,0,0,1301,0,Yes
4,2,4,0,0,4,0,0,0,0,0,0,0,862,0,No
5,2,5,0,0,4,0,0,0,0,0,0,0,1301,0,No
5,4,5,0,0,4,0,0,0,0,0,0,0,1301,0,No
8,10,53,0,0,9,0,0,0,0,0,0,0,1045,2,Yes
2,0,6,0,2,7,0,0,0,0,0,0,0,1258,2,No
8,2,12,0,0,4,0,0,0,0,0,0,0,1301,0,Yes
5,2,7,0,0,4,0,0,0,0,0,0,0,1290,0,No
5,2,7,0,0,4,0,0,0,0,0,0,0,1290,0,Yes
16,16,112,44,3,7,25,17,6,8,5,32,69,1301,11,Yes
5,3,9,0,0,4,0,0,0,0,0,0,0,1290,1,No
4,6,9,0,0,5,0,0,0,0,0,0,0,1290,0,No
2,2,5,1,1,7,0,0,-1,0,4,22,49,1258,2,No
5,2,7,0,0,4,0,0,0,0,0,0,0,1290,0,No
5,7,8,0,0,4,0,0,0,0,0,0,0,1290,0,No
6,5,9,0,0,4,0,0,0,0,0,0,0,1290,0,No
5,4,8,0,0,4,0,0,0,0,0,0,0,664,0,No
5,6,7,0,0,5,0,0,0,0,0,0,0,1225,0,No
4,3,4,0,0,4,0,0,0,0,0,0,0,758,0,No
8,6,14,0,0,4,0,0,0,0,0,0,0,831,0,No
7,3,10,0,0,4,0,0,0,0,0,0,0,656,0,Yes
8,4,12,0,0,4,0,0,0,0,0,0,0,656,0,No
6,14,23,0,0,7,0,0,0,0,0,0,0,1246,0,No
21,15,45,0,0,7,0,0,0,0,0,0,0,1290,0,Yes
5,7,8,0,0,4,0,0,0,0,0,0,0,1290,0,No
11,6,21,0,0,5,0,0,0,0,0,0,0,1290,0,Yes
9,7,14,0,0,4,0,0,0,0,0,0,0,1290,0,No
15,11,32,0,0,9,0,0,0,0,0,0,0,1045,0,Yes
4,3,4,0,0,4,0,0,0,0,0,0,0,758,0,No
5,2,7,0,0,4,0,0,0,0,0,0,0,1290,0,No
5,7,8,0,0,4,0,0,0,0,0,0,0,1290,0,No
2,0,67,0,0,2,0,0,0,0,0,0,0,502,7,No
2,2,2,0,0,4,0,0,0,0,0,0,0,1272,0,No
1,2,2,0,0,5,0,0,0,0,0,0,0,1301,0,No
1,3,6,0,0,6,0,0,0,0,0,0,0,1301,0,No
1,2,2,0,1,5,0,0,0,0,0,0,0,1272,0,No
0,1,0,0,0,5,0,0,0,0,0,0,0,1301,0,No
0,0,0,0,0,3,0,0,0,0,0,0,0,1301,0,No
1,1,1,0,0,3,0,0,0,0,0,0,0,1272,0,No
2,1,2,0,3,4,0,0,0,0,0,0,0,1301,0,No
0,0,0,0,0,4,0,0,0,0,0,0,0,1097,0,No
1,2,7,0,2,5,0,0,0,0,0,0,0,1097,1,No
0,0,0,0,0,4,0,0,0,0,0,0,0,1097,0,No
1,4,10,0,2,5,0,0,0,0,0,0,0,1097,2,No
0,0,0,0,0,4,0,0,0,0,0,0,0,1097,0,No
1,3,2,0,2,3,0,0,0,0,0,0,0,398,1,No
0,0,0,0,0,4,0,0,0,0,0,0,0,1097,0,No
1,2,2,0,3,5,0,0,0,0,0,0,0,1097,1,No
1,0,2,0,0,4,0,0,0,0,0,0,0,1097,0,No
0,0,0,0,0,4,0,0,0,0,0,0,0,1097,0,No
3,5,19,0,2,7,0,0,0,0,0,0,0,1097,2,No
4,1,7,0,2,5,0,0,0,0,0,0,0,1097,0,No
0,0,0,0,0,4,0,0,0,0,0,0,0,862,0,No
1,2,7,0,2,5,0,0,0,0,0,0,0,758,0,No
0,0,0,0,0,4,0,0,0,0,0,0,0,1097,0,No
1,9,20,0,3,6,0,0,0,0,0,0,0,831,2,No
0,0,0,0,0,4,0,0,0,0,0,0,0,862,0,No
1,4,9,0,2,5,0,0,0,0,0,0,0,1097,1,No
0,0,0,0,0,4,0,0,0,0,0,0,0,862,0,No
1,3,5,0,2,5,0,0,0,0,0,0,0,862,1,No
0,0,0,0,0,4,0,0,0,0,0,0,0,862,0,No
1,2,7,0,2,8,0,0,0,0,0,0,0,862,1,No
0,0,0,0,0,4,0,0,0,0,0,0,0,1097,0,No
0,0,0,0,1,4,0,0,0,0,0,0,0,1097,0,No
2,13,17,0,1,1,0,0,0,0,0,0,0,68,0,No
1,3,5,0,2,5,0,0,0,0,0,0,0,1097,0,No
0,0,0,0,0,4,0,0,0,0,0,0,0,862,0,No
1,3,7,0,2,9,0,0,0,0,0,0,0,856,0,No
0,0,0,0,1,4,0,0,0,0,0,0,0,1097,0,No
1,2,2,0,2,3,0,0,0,0,0,0,0,398,0,No
0,0,0,0,0,4,0,0,0,0,0,0,0,1097,0,No
1,2,3,0,2,3,0,0,0,0,0,0,0,398,0,No
0,0,0,0,0,5,0,0,0,0,0,0,0,1097,0,No
3,13,23,0,2,7,0,0,0,0,0,0,0,768,0,No
1,3,24,0,2,7,0,0,0,0,0,0,0,761,0,No
0,0,0,0,0,4,0,0,0,0,0,0,0,1262,0,No
12,2,58,0,0,7,0,0,0,0,0,0,0,818,0,No
0,0,0,0,0,4,0,0,0,0,0,0,0,1262,0,No
0,0,0,0,0,5,0,0,0,0,0,0,0,1262,0,No
1,2,1,0,0,4,0,0,0,0,0,0,0,831,1,No
1,7,18,0,0,5,0,0,0,0,0,0,0,831,1,No
0,0,0,0,0,1,0,0,0,0,0,0,0,400,1,No
1,1,1,0,1,6,0,0,0,0,0,0,0,761,0,No
17,4,17,0,0,3,0,0,0,0,0,0,0,314,0,No
4,3,4,0,0,4,0,0,0,0,0,0,0,345,0,No
2,2,2,0,0,5,0,0,0,0,0,0,0,862,2,No
2,2,2,0,0,5,0,0,0,0,0,0,0,1262,0,No
16,1,42,0,1,5,0,0,0,0,0,0,0,1216,0,No
1,0,1,1,1,4,0,0,-1,0,1,9,19,1301,0,No
3,3,3,27,0,4,22,22,17,17,2,13,22,653,0,No
4,2,4,20,1,2,16,12,12,12,3,22,41,401,0,No
0,0,0,0,0,6,0,0,0,0,0,0,0,1262,0,No
10,25,66,96,3,6,79,39,62,39,8,54,110,401,11,No
11,0,21,0,0,2,0,0,0,0,0,0,0,308,2,No
22,10,97,0,0,8,0,0,0,0,0,0,0,1174,40,No
4,5,10,53,0,5,27,27,1,1,2,13,22,379,0,No
2,7,11,13,3,4,5,4,-3,0,2,10,20,357,0,No
2,7,12,67,1,4,47,38,27,23,8,47,93,401,1,No
20,28,63,55,6,9,41,37,27,26,3,22,41,1239,5,Yes
0,0,0,0,0,3,0,0,0,0,0,0,0,1262,0,No
4,8,7,39,2,5,38,38,37,37,4,30,67,854,1,No
1,0,1,0,2,3,0,0,0,0,0,0,0,1262,0,No
2,2,5,0,1,3,0,0,0,0,0,0,0,862,2,No
3,5,12,0,0,4,0,0,0,0,0,0,0,730,1,No
1,0,1,0,1,3,0,0,0,0,0,0,0,1262,0,No
0,0,0,0,0,3,0,0,0,0,0,0,0,1262,0,No
4,1,5,13,1,4,4,4,-5,0,4,22,49,862,0,No
0,0,0,0,0,4,0,0,0,0,0,0,0,862,0,No
2,9,11,10,0,4,3,3,-4,0,4,22,49,656,1,No
0,0,0,0,0,3,0,0,0,0,0,0,0,862,1,No
2,1,2,0,0,5,0,0,0,0,0,0,0,656,0,No
0,1,0,0,0,4,0,0,0,0,0,0,0,862,0,No
7,14,42,79,2,5,59,44,39,43,8,30,62,862,4,Yes
2,2,11,51,1,3,46,46,41,41,2,6,11,631,0,No
7,17,49,81,2,5,57,40,33,40,6,28,60,862,5,Yes
10,0,10,101,0,1,101,101,101,101,2,6,11,27,0,No
6,12,19,50,1,5,38,33,26,21,7,39,92,1301,6,No
0,1,0,63,1,5,34,26,5,6,7,39,92,1262,1,No
3,4,4,26,1,5,12,12,-2,0,4,30,67,1080,0,No
10,11,25,79,3,8,36,36,-7,0,7,39,92,1226,3,No
14,18,43,102,3,9,35,35,-32,0,7,39,92,1241,5,No
1,3,5,146,2,2,127,106,108,106,11,58,119,22,4,No
6,9,21,62,3,7,37,37,12,12,4,30,67,1253,1,No
12,19,34,136,2,7,117,116,98,97,5,31,68,1023,4,No
7,5,18,61,2,7,34,33,7,9,7,39,92,758,4,No
16,13,32,95,4,7,37,34,-21,0,7,39,92,818,1,No
17,18,53,118,2,8,50,35,-18,9,13,67,152,656,7,Yes
10,25,37,88,3,8,39,36,-10,0,7,39,92,1239,2,No
12,23,39,201,2,8,96,49,-9,13,13,74,163,1230,2,Yes
6,9,21,76,2,7,44,41,12,11,7,39,92,1258,1,No
19,26,63,119,3,7,42,41,-35,0,7,39,92,1135,6,Yes
1,0,1,6,0,4,3,3,0,0,3,9,25,1301,0,No
0,0,0,57,1,2,46,31,35,31,7,39,92,22,0,No
40,33,85,1026,6,8,475,202,-76,28,15,76,165,1268,1,Yes
9,9,21,85,1,7,26,24,-33,0,7,39,92,748,0,No
6,9,21,73,2,8,42,39,11,10,7,39,92,936,1,No
7,5,7,52,2,6,12,12,-28,0,8,49,94,751,1,No
13,38,150,28,3,7,4,2,-20,0,5,28,48,1229,9,Yes
2,2,2,67,0,4,33,33,-1,0,2,13,22,1262,0,No
2,2,2,0,0,4,0,0,0,0,0,0,0,1226,0,No
4,9,31,0,0,6,0,0,0,0,0,0,0,1241,0,No
2,2,2,18,0,5,11,11,4,4,2,13,22,1262,0,No
4,6,7,6,2,4,1,1,-4,0,1,9,19,1253,0,No
3,2,3,3,1,5,0,0,-3,0,4,30,67,758,0,No
3,12,29,3,0,5,0,0,-3,0,4,22,49,817,0,Yes
7,11,23,0,0,5,0,0,0,0,0,0,0,656,1,No
13,23,57,7,3,6,2,2,-3,0,1,9,19,1239,0,No
6,25,54,0,1,6,0,0,0,0,0,0,0,1251,5,Yes
4,10,9,7,2,5,2,1,-3,0,5,39,86,1253,0,No
7,26,50,19,1,8,9,7,-1,2,2,10,20,1139,1,No
8,0,10,0,0,4,0,0,0,0,0,0,0,1268,0,No
12,31,55,3,5,10,0,0,-3,0,5,39,86,1251,5,Yes
6,8,10,0,0,6,0,0,0,0,0,0,0,748,0,No
4,2,4,0,0,5,0,0,0,0,0,0,0,936,0,No
3,0,18,0,1,3,0,0,0,0,0,0,0,313,1,No
9,11,35,0,2,6,0,0,0,0,0,0,0,313,1,Yes
5,0,5,0,0,4,0,0,0,0,0,0,0,1237,1,No
2,2,4,0,0,4,0,0,0,0,0,0,0,450,0,No
6,9,15,44,4,7,37,19,30,15,5,34,71,1077,2,No
1,1,3,0,0,1,0,0,0,0,0,0,0,239,0,No
1,7,9,0,2,4,0,0,0,0,0,0,0,1077,0,No
10,8,10,0,1,4,0,0,0,0,0,0,0,313,0,No
14,10,16,0,0,5,0,0,0,0,0,0,0,312,0,No
1,0,1,0,0,6,0,0,0,0,0,0,0,1301,0,No
32,0,32,0,0,3,0,0,0,0,0,0,0,313,0,No
2,4,2,0,0,5,0,0,0,0,0,0,0,1301,0,No
5,7,17,9,1,4,7,7,5,7,8,52,116,328,2,No
6,4,6,0,0,2,0,0,0,0,0,0,0,307,0,No
8,10,22,0,1,4,0,0,0,0,0,0,0,308,0,No
14,9,15,0,0,3,0,0,0,0,0,0,0,307,0,Yes
11,10,11,0,0,5,0,0,0,0,0,0,0,312,0,No
14,7,14,1,1,3,1,1,1,1,2,3,5,306,0,Yes
6,11,21,0,0,4,0,0,0,0,0,0,0,309,0,No
16,17,24,0,0,5,0,0,0,0,0,0,0,302,0,Yes
7,5,10,0,0,2,0,0,0,0,0,0,0,307,0,No
26,10,26,1,2,5,1,1,1,1,2,3,5,303,0,Yes
5,4,5,0,1,6,0,0,0,0,0,0,0,1301,0,No
3,4,7,20,1,2,1,1,-18,0,4,19,27,300,1,No
6,2,6,0,0,7,0,0,0,0,0,0,0,737,3,No
6,2,6,0,0,7,0,0,0,0,0,0,0,737,6,No
1,1,1,0,1,6,0,0,0,0,0,0,0,1262,0,No
15,3,20,0,0,6,0,0,0,0,0,0,0,754,0,No
7,25,29,46,2,5,40,40,34,34,4,30,67,338,0,Yes
6,23,71,16,3,6,13,13,10,10,1,1,1,400,1,No
27,55,133,242,8,9,177,111,112,89,8,45,91,862,15,Yes
3,0,3,0,0,3,0,0,0,0,0,0,0,1301,0,No
33,48,142,3,2,5,3,3,3,3,1,9,19,1229,22,Yes
10,1,41,0,0,7,0,0,0,0,0,0,0,796,8,No
5,4,57,0,3,7,0,0,0,0,0,0,0,685,6,No
3,0,38,0,0,1,0,0,0,0,0,0,0,238,9,No
13,1,16,0,2,1,0,0,0,0,0,0,0,272,0,No
8,1,18,0,0,5,0,0,0,0,0,0,0,1000,1,No
4,0,8,0,0,2,0,0,0,0,0,0,0,336,4,No
0,0,0,0,0,5,0,0,0,0,0,0,0,1262,0,No
9,6,36,101,2,4,51,51,1,1,1,9,19,959,11,No
9,28,103,61,4,6,35,16,9,12,8,39,77,636,10,Yes
4,1,16,0,1,4,0,0,0,0,0,0,0,450,0,No
1,0,2,0,0,5,0,0,0,0,0,0,0,1262,1,No
4,10,20,0,0,4,0,0,0,0,0,0,0,862,0,No
1,0,5,0,1,1,0,0,0,0,0,0,0,245,0,No
5,1,14,18,1,2,10,10,2,2,1,3,11,287,0,No
6,1,6,0,1,3,0,0,0,0,0,0,0,287,0,No
7,0,8,29,0,4,23,23,17,17,1,3,11,1301,0,No
2,1,4,0,0,4,0,0,0,0,0,0,0,733,0,No
14,0,18,0,1,5,0,0,0,0,0,0,0,685,0,No
2,0,6,0,0,4,0,0,0,0,0,0,0,685,1,No
3,2,4,0,1,5,0,0,0,0,0,0,0,917,3,No
7,3,7,8,2,5,0,0,-8,0,4,19,27,379,0,No
0,1,0,0,1,5,0,0,0,0,0,0,0,862,0,No
3,0,3,0,1,6,0,0,0,0,0,0,0,1262,0,No
9,1,9,0,1,4,0,0,0,0,0,0,0,751,0,No
1,6,3,5,2,4,0,0,-5,0,4,30,67,317,1,No
0,0,0,0,0,3,0,0,0,0,0,0,0,1262,0,No
5,9,5,0,0,4,0,0,0,0,0,0,0,379,0,No
10,11,10,10,1,4,0,0,-10,0,4,19,27,379,0,No
4,7,4,0,0,3,0,0,0,0,0,0,0,379,0,No
13,9,13,0,1,8,0,0,0,0,0,0,0,769,0,No
14,11,18,11,6,7,0,0,-11,0,4,19,27,786,0,No
10,7,10,0,1,7,0,0,0,0,0,0,0,786,1,No
25,15,80,44,5,7,5,5,-34,4,6,21,29,775,14,No
3,1,5,0,1,7,0,0,0,0,0,0,0,775,3,No
1,1,1,0,0,3,0,0,0,0,0,0,0,862,0,No
13,3,15,0,0,5,0,0,0,0,0,0,0,763,2,No
17,2,26,0,0,5,0,0,0,0,0,0,0,763,1,No
1,0,1,0,0,3,0,0,0,0,0,0,0,862,0,No
4,0,4,0,0,3,0,0,0,0,0,0,0,862,0,No
18,4,21,0,0,5,0,0,0,0,0,0,0,763,2,No
22,7,40,0,0,5,0,0,0,0,0,0,0,763,1,Yes
2,3,2,0,0,3,0,0,0,0,0,0,0,775,0,No
1,1,1,0,1,4,0,0,0,0,0,0,0,862,0,No
1,3,1,0,0,5,0,0,0,0,0,0,0,775,0,No
1,2,2,0,1,4,0,0,0,0,0,0,0,775,0,No
1,2,1,0,0,3,0,0,0,0,0,0,0,775,0,No
1,0,1,0,0,3,0,0,0,0,0,0,0,862,1,No
1,0,1,0,0,3,0,0,0,0,0,0,0,862,1,No
1,4,1,0,0,5,0,0,0,0,0,0,0,775,0,No
2,0,6,0,0,3,0,0,0,0,0,0,0,802,2,No
6,0,19,0,1,3,0,0,0,0,0,0,0,802,1,No
3,0,9,0,0,1,0,0,0,0,0,0,0,331,5,No
2,0,9,0,1,3,0,0,0,0,0,0,0,802,2,No
5,0,17,0,0,3,0,0,0,0,0,0,0,802,1,No
1,0,10,0,0,1,0,0,0,0,0,0,0,441,5,No
4,0,5,0,0,2,0,0,0,0,0,0,0,394,1,No
1,0,2,0,0,4,0,0,0,0,0,0,0,1387,0,No
2,0,2,0,0,4,0,0,0,0,0,0,0,763,0,No
3,4,16,0,1,3,0,0,0,0,0,0,0,395,4,No
8,6,9,0,2,2,0,0,0,0,0,0,0,414,0,No
13,8,17,0,0,3,0,0,0,0,0,0,0,414,0,No
2,3,2,0,0,4,0,0,0,0,0,0,0,1387,0,No
5,6,15,0,1,3,0,0,0,0,0,0,0,414,0,No
5,3,5,0,0,3,0,0,0,0,0,0,0,409,0,No
9,8,24,0,1,4,0,0,0,0,0,0,0,410,0,No
12,6,13,0,2,3,0,0,0,0,0,0,0,413,0,No
10,9,12,0,1,3,0,0,0,0,0,0,0,413,0,No
13,5,13,0,1,2,0,0,0,0,0,0,0,415,0,No
6,8,13,0,1,3,0,0,0,0,0,0,0,409,0,No
1,0,1,0,0,4,0,0,0,0,0,0,0,1387,0,No
4,2,8,0,1,5,0,0,0,0,0,0,0,1387,0,No
15,15,35,0,2,4,0,0,0,0,0,0,0,410,1,No
6,3,9,0,0,3,0,0,0,0,0,0,0,408,0,No
25,8,25,0,2,4,0,0,0,0,0,0,0,415,0,No
5,3,5,0,1,1,0,0,0,0,0,0,0,371,0,No
2,3,2,0,1,6,0,0,0,0,0,0,0,1387,0,No
3,0,3,0,0,4,0,0,0,0,0,0,0,1387,0,No
0,0,0,0,0,6,0,0,0,0,0,0,0,948,1,No
0,0,0,0,0,5,0,0,0,0,0,0,0,948,0,No
0,1,0,0,0,4,0,0,0,0,0,0,0,948,0,No
0,0,0,0,0,4,0,0,0,0,0,0,0,948,0,No
35,1,42,0,0,5,0,0,0,0,0,0,0,1303,0,No
11,1,12,0,0,4,0,0,0,0,0,0,0,1303,0,No
11,0,12,0,0,5,0,0,0,0,0,0,0,1387,2,No
2,1,2,0,0,4,0,0,0,0,0,0,0,1387,0,No
25,0,38,0,0,4,0,0,0,0,0,0,0,1323,0,No
15,1,26,0,0,5,0,0,0,0,0,0,0,1303,2,No
2,1,2,0,0,5,0,0,0,0,0,0,0,948,0,No
1,0,1,0,0,4,0,0,0,0,0,0,0,742,0,No
10,3,10,0,0,5,0,0,0,0,0,0,0,742,0,No
12,1,14,0,0,3,0,0,0,0,0,0,0,717,0,No
10,3,10,0,0,5,0,0,0,0,0,0,0,742,0,No
0,0,0,0,0,4,0,0,0,0,0,0,0,1348,1,No
7,1,11,0,0,4,0,0,0,0,0,0,0,1234,0,No
3,1,3,0,0,4,0,0,0,0,0,0,0,1344,0,No
5,1,6,0,0,4,0,0,0,0,0,0,0,1387,1,No
29,1,51,0,0,5,0,0,0,0,0,0,0,1234,1,No
3,1,3,0,0,5,0,0,0,0,0,0,0,1387,0,No
1,0,1,0,0,4,0,0,0,0,0,0,0,1348,0,No
8,3,8,0,1,3,0,0,0,0,0,0,0,414,0,No
13,7,13,0,1,3,0,0,0,0,0,0,0,414,0,No
2,1,2,0,0,4,0,0,0,0,0,0,0,1387,0,No
0,0,0,0,0,5,0,0,0,0,0,0,0,1348,0,No
5,3,5,0,1,3,0,0,0,0,0,0,0,414,1,No
5,1,5,0,0,4,0,0,0,0,0,0,0,409,0,No
7,3,7,0,1,3,0,0,0,0,0,0,0,410,0,No
12,3,12,0,1,3,0,0,0,0,0,0,0,413,0,No
2,0,2,0,0,5,0,0,0,0,0,0,0,1387,0,No
10,6,10,0,0,3,0,0,0,0,0,0,0,413,0,No
13,3,13,0,0,3,0,0,0,0,0,0,0,415,0,No
5,3,5,0,0,3,0,0,0,0,0,0,0,409,0,No
14,8,14,0,0,4,0,0,0,0,0,0,0,410,0,No
6,1,6,0,0,3,0,0,0,0,0,0,0,409,1,No
25,6,25,0,1,5,0,0,0,0,0,0,0,415,0,No
5,2,5,0,1,5,0,0,0,0,0,0,0,1387,0,No
2,2,2,0,1,4,0,0,0,0,0,0,0,414,0,No
20,0,29,0,0,6,0,0,0,0,0,0,0,1354,1,No
10,1,14,0,0,4,0,0,0,0,0,0,0,1225,0,No
2,1,2,0,0,4,0,0,0,0,0,0,0,1387,0,No
2,2,2,0,0,4,0,0,0,0,0,0,0,1387,0,No
8,1,13,0,0,5,0,0,0,0,0,0,0,1387,2,No
6,1,8,0,0,2,0,0,0,0,0,0,0,346,0,No
9,1,16,0,0,2,0,0,0,0,0,0,0,346,1,No
4,1,4,0,0,4,0,0,0,0,0,0,0,1387,0,No
14,2,14,0,0,4,0,0,0,0,0,0,0,1325,0,No
3,1,3,0,0,4,0,0,0,0,0,0,0,1387,2,No
23,3,31,0,0,7,0,0,0,0,0,0,0,1327,2,No
5,1,7,0,1,5,0,0,0,0,0,0,0,763,0,No
3,1,3,0,0,5,0,0,0,0,0,0,0,1387,0,No
2,0,2,0,0,4,0,0,0,0,0,0,0,1344,0,No
3,1,3,0,0,1,0,0,0,0,0,0,0,415,0,No
8,2,10,0,2,2,0,0,0,0,0,0,0,108,0,No
3,1,3,0,0,4,0,0,0,0,0,0,0,1387,0,No
4,2,4,0,0,4,0,0,0,0,0,0,0,1387,0,No
3,1,3,0,0,4,0,0,0,0,0,0,0,1387,0,No
16,3,16,0,0,5,0,0,0,0,0,0,0,1332,0,No
11,2,27,0,1,4,0,0,0,0,0,0,0,467,2,No
12,0,12,0,0,5,0,0,0,0,0,0,0,1387,2,No
24,4,27,0,0,6,0,0,0,0,0,0,0,844,0,No
16,1,18,0,0,5,0,0,0,0,0,0,0,837,1,No
2,2,2,0,0,4,0,0,0,0,0,0,0,1387,0,No
8,2,8,26,0,4,25,25,24,24,3,14,39,1387,0,No
3,1,3,0,0,1,0,0,0,0,0,0,0,415,0,No
6,1,9,0,0,2,0,0,0,0,0,0,0,394,1,No
10,2,10,0,0,5,0,0,0,0,0,0,0,739,0,No
18,3,18,0,0,4,0,0,0,0,0,0,0,1225,0,No
2,0,2,0,0,4,0,0,0,0,0,0,0,948,0,No
24,4,32,0,0,5,0,0,0,0,0,0,0,742,0,No
42,4,42,0,1,4,0,0,0,0,0,0,0,1323,0,No
30,0,37,0,1,5,0,0,0,0,0,0,0,1316,1,No
12,0,16,0,0,5,0,0,0,0,0,0,0,1387,0,No
18,1,19,0,0,6,0,0,0,0,0,0,0,1387,0,No
3,1,3,0,0,1,0,0,0,0,0,0,0,415,0,No
2,2,2,0,0,4,0,0,0,0,0,0,0,1387,0,No
18,0,18,0,0,4,0,0,0,0,0,0,0,948,0,No
2,0,2,0,0,4,0,0,0,0,0,0,0,1225,0,No
12,1,16,0,0,6,0,0,0,0,0,0,0,1225,0,No
1,0,1,0,0,5,0,0,0,0,0,0,0,1387,0,No
10,3,13,0,0,5,0,0,0,0,0,0,0,834,1,No
25,0,31,0,0,5,0,0,0,0,0,0,0,1354,1,No
3,1,3,0,0,4,0,0,0,0,0,0,0,1387,0,No
2,0,2,0,0,5,0,0,0,0,0,0,0,1387,0,No
4,1,4,0,0,4,0,0,0,0,0,0,0,948,0,No
20,2,21,0,0,4,0,0,0,0,0,0,0,850,0,No
20,1,27,0,0,6,0,0,0,0,0,0,0,850,2,No
0,1,0,0,0,4,0,0,0,0,0,0,0,1348,1,No
22,1,26,0,0,5,0,0,0,0,0,0,0,1348,0,No
1,0,1,0,0,5,0,0,0,0,0,0,0,1348,1,No
2,0,4,0,0,4,0,0,0,0,0,0,0,1387,3,No
1,0,1,0,2,5,0,0,0,0,0,0,0,1387,1,No
7,4,10,0,2,3,0,0,0,0,0,0,0,701,0,No
2,0,2,0,0,5,0,0,0,0,0,0,0,1348,2,No
1,0,1,0,0,6,0,0,0,0,0,0,0,1348,1,No
15,1,17,0,0,5,0,0,0,0,0,0,0,1387,1,No
7,1,7,0,0,4,0,0,0,0,0,0,0,1387,1,No
1,0,1,0,0,4,0,0,0,0,0,0,0,1348,0,No
1,0,1,0,0,5,0,0,0,0,0,0,0,1348,1,No
2,0,2,0,2,3,0,0,0,0,0,0,0,674,1,No
5,0,17,0,2,7,0,0,0,0,0,0,0,1348,9,No
1,0,1,0,0,5,0,0,0,0,0,0,0,1348,1,No
0,0,0,0,1,2,0,0,0,0,0,0,0,368,0,No
48,1,52,0,0,6,0,0,0,0,0,0,0,917,0,No
2,0,2,0,0,5,0,0,0,0,0,0,0,1348,1,No
0,0,0,0,0,4,0,0,0,0,0,0,0,1348,0,No
2,0,3,0,0,5,0,0,0,0,0,0,0,1348,1,No
0,0,0,0,0,4,0,0,0,0,0,0,0,1348,0,No
1,0,1,0,0,5,0,0,0,0,0,0,0,1348,1,No
1,0,1,0,0,5,0,0,0,0,0,0,0,1348,1,No
2,4,2,0,1,4,0,0,0,0,0,0,0,948,1,No
10,2,11,0,0,8,0,0,0,0,0,0,0,1348,0,No
3,0,6,8,4,4,3,3,-2,0,2,5,6,1332,1,No
2,0,9,0,0,4,0,0,0,0,0,0,0,750,0,No
1,0,1,0,0,4,0,0,0,0,0,0,0,1348,0,No
2,0,5,0,0,5,0,0,0,0,0,0,0,948,3,No
0,0,0,0,0,4,0,0,0,0,0,0,0,1348,0,No
1,0,1,0,0,5,0,0,0,0,0,0,0,948,1,No
0,0,0,0,0,4,0,0,0,0,0,0,0,948,0,No
0,0,0,0,0,4,0,0,0,0,0,0,0,1348,0,No
10,11,54,21,1,6,14,12,7,11,5,18,45,830,0,No
17,10,34,0,2,4,0,0,0,0,0,0,0,399,0,No
2,4,18,0,2,2,0,0,0,0,0,0,0,108,2,No
7,1,14,0,2,6,0,0,0,0,0,0,0,1332,0,No
1,1,11,0,2,4,0,0,0,0,0,0,0,1332,2,No
8,1,8,0,0,5,0,0,0,0,0,0,0,1332,0,No
8,14,18,0,0,6,0,0,0,0,0,0,0,1348,0,No
1,1,7,11,1,3,5,5,-1,0,1,2,2,1211,1,No
13,31,14,0,2,7,0,0,0,0,0,0,0,1348,0,No
4,4,10,0,1,6,0,0,0,0,0,0,0,840,2,No
3,0,3,0,0,2,0,0,0,0,0,0,0,549,0,No
0,0,0,0,0,2,0,0,0,0,0,0,0,280,0,No
0,0,0,0,0,4,0,0,0,0,0,0,0,1348,0,No
3,1,4,0,0,5,0,0,0,0,0,0,0,948,2,No
6,1,10,0,0,4,0,0,0,0,0,0,0,729,0,No
3,0,3,0,0,2,0,0,0,0,0,0,0,386,1,No
2,0,2,0,0,5,0,0,0,0,0,0,0,948,0,No
10,0,21,0,2,6,0,0,0,0,0,0,0,1102,3,No
7,2,12,0,0,4,0,0,0,0,0,0,0,1107,1,No
1,1,4,0,0,3,0,0,0,0,0,0,0,1387,1,No
1,6,3,0,1,4,0,0,0,0,0,0,0,1017,0,No
13,2,13,0,0,5,0,0,0,0,0,0,0,1239,2,No
2,0,3,0,0,3,0,0,0,0,0,0,0,1387,0,No
7,0,12,0,0,5,0,0,0,0,0,0,0,947,1,No
2,3,12,0,2,6,0,0,0,0,0,0,0,1065,2,No
2,0,7,0,1,5,0,0,0,0,0,0,0,1067,0,No
7,0,7,0,0,3,0,0,0,0,0,0,0,1387,0,No
9,6,34,0,0,4,0,0,0,0,0,0,0,730,2,No
2,0,8,0,0,6,0,0,0,0,0,0,0,1176,0,No
8,3,28,0,0,4,0,0,0,0,0,0,0,729,2,No
2,0,4,0,0,1,0,0,0,0,0,0,0,386,0,No
4,8,4,0,0,4,0,0,0,0,0,0,0,1348,0,No
3,7,8,0,1,6,0,0,0,0,0,0,0,947,1,No
2,2,2,0,0,5,0,0,0,0,0,0,0,1017,0,No
10,12,29,168,3,5,84,79,0,1,6,21,90,847,2,No
1,1,1,0,1,5,0,0,0,0,0,0,0,1348,0,No
9,4,16,6,2,7,3,2,0,1,3,7,51,1348,2,No
6,6,7,40,2,3,20,11,0,2,3,7,51,346,1,No
4,2,4,0,0,3,0,0,0,0,0,0,0,346,0,No
36,20,54,134,4,7,67,35,0,3,3,7,51,1348,16,No
4,4,7,0,1,6,0,0,0,0,0,0,0,1242,4,No
3,5,13,0,0,2,0,0,0,0,0,0,0,352,0,No
13,16,42,0,2,7,0,0,0,0,0,0,0,1323,3,Yes
4,7,12,0,2,6,0,0,0,0,0,0,0,1323,1,No
11,3,16,0,3,6,0,0,0,0,0,0,0,1296,1,No
2,8,5,19,5,5,11,5,3,3,8,29,104,742,0,No
0,0,0,3,1,3,2,2,1,1,1,2,2,1348,0,No
0,0,0,0,0,3,0,0,0,0,0,0,0,948,0,No
0,0,0,0,0,1,0,0,0,0,0,0,0,217,0,No
0,0,0,0,0,3,0,0,0,0,0,0,0,1348,0,No
0,1,0,0,0,2,0,0,0,0,0,0,0,389,2,No
11,10,15,64,4,7,32,17,0,2,3,7,51,1347,9,Yes
0,2,0,0,0,5,0,0,0,0,0,0,0,1346,1,No
4,5,4,0,1,6,0,0,0,0,0,0,0,1296,2,No
11,14,22,6,7,7,3,2,0,1,3,7,51,837,7,No
0,3,0,0,1,6,0,0,0,0,0,0,0,837,0,No
23,19,49,246,4,7,229,216,212,212,6,21,90,847,7,No
0,2,0,0,1,4,0,0,0,0,0,0,0,1017,0,No
3,3,3,0,0,4,0,0,0,0,0,0,0,729,0,No
39,19,75,92,4,7,46,24,0,2,3,7,51,729,3,No
11,17,70,0,3,6,0,0,0,0,0,0,0,717,3,No
19,17,43,135,8,8,69,54,3,3,5,15,65,1348,5,No
5,8,18,8,8,7,5,5,2,2,3,14,39,1317,3,No
35,13,43,345,6,7,173,62,1,6,7,23,92,1348,13,No
13,10,36,0,1,5,0,0,0,0,0,0,0,730,3,No
5,6,9,13,5,7,7,4,1,1,6,21,90,1296,1,No
4,5,6,0,0,4,0,0,0,0,0,0,0,480,1,No
1,2,1,0,0,5,0,0,0,0,0,0,0,1017,0,No
8,9,14,80,4,7,40,21,0,2,3,7,51,1348,5,No
1,2,1,0,0,6,0,0,0,0,0,0,0,947,0,No
19,14,35,142,4,7,71,37,0,3,3,7,51,1341,2,No
10,11,41,0,2,8,0,0,0,0,0,0,0,1323,6,No
5,5,8,0,1,6,0,0,0,0,0,0,0,756,2,No
1,5,2,0,1,6,0,0,0,0,0,0,0,947,0,No
11,14,19,18,5,7,9,6,0,3,3,7,51,1212,2,No
11,12,16,30,3,7,15,8,0,1,3,7,51,1348,0,No
24,13,37,36,3,7,18,11,0,4,3,7,51,847,8,No
10,8,18,8,5,7,4,3,0,2,3,7,51,1296,4,No
3,5,5,0,0,4,0,0,0,0,0,0,0,480,1,No
2,5,11,5,1,5,3,2,1,1,5,17,42,742,3,No
2,2,2,0,0,5,0,0,0,0,0,0,0,1017,0,No
7,10,11,138,5,7,69,36,0,3,3,7,51,1348,4,No
2,1,2,0,0,5,0,0,0,0,0,0,0,1017,0,No
4,7,12,0,1,6,0,0,0,0,0,0,0,1017,1,No
1,2,1,0,0,6,0,0,0,0,0,0,0,1348,0,No
12,15,51,0,1,3,0,0,0,0,0,0,0,428,0,No
17,9,23,6,6,7,3,2,0,1,3,7,51,840,1,No
0,3,0,0,0,2,0,0,0,0,0,0,0,280,0,No
0,3,0,0,0,5,0,0,0,0,0,0,0,742,0,No
13,8,16,91,2,3,66,53,41,48,2,3,3,346,3,No
8,19,38,0,1,7,0,0,0,0,0,0,0,932,2,No
9,8,13,0,2,6,0,0,0,0,0,0,0,1015,0,No
8,4,18,0,2,2,0,0,0,0,0,0,0,108,3,No
2,0,2,0,0,4,0,0,0,0,0,0,0,1348,0,No
21,11,46,0,4,3,0,0,0,0,0,0,0,108,1,No
11,13,29,180,3,5,90,46,0,2,3,7,51,932,0,No
10,10,19,0,2,7,0,0,0,0,0,0,0,1348,6,No
15,15,23,8,3,7,4,4,0,0,3,14,39,898,3,No
14,15,34,0,1,7,0,0,0,0,0,0,0,904,1,No
11,12,20,0,2,7,0,0,0,0,0,0,0,1348,6,No
6,15,27,0,2,7,0,0,0,0,0,0,0,742,2,No
7,11,11,0,0,7,0,0,0,0,0,0,0,742,1,No
20,19,93,0,9,8,0,0,0,0,0,0,0,742,3,No
5,5,15,0,0,7,0,0,0,0,0,0,0,856,1,No
6,13,18,0,2,7,0,0,0,0,0,0,0,932,2,No
19,10,36,14,2,3,7,4,0,1,3,7,51,480,0,No
6,7,6,0,2,7,0,0,0,0,0,0,0,833,3,No
5,3,5,0,1,4,0,0,0,0,0,0,0,428,1,No
11,12,15,22,4,4,11,7,0,3,3,7,51,428,1,No
6,7,11,0,0,7,0,0,0,0,0,0,0,856,1,No
7,7,7,0,0,5,0,0,0,0,0,0,0,833,5,No
9,15,10,0,2,6,0,0,0,0,0,0,0,833,4,No
12,12,22,0,2,7,0,0,0,0,0,0,0,1348,6,No
14,3,28,0,0,3,0,0,0,0,0,0,0,428,4,No
3,6,4,0,2,5,0,0,0,0,0,0,0,480,0,No
10,1,14,0,2,2,0,0,0,0,0,0,0,108,0,No
10,15,24,3,1,6,1,1,-1,0,2,8,14,742,5,No
16,14,26,0,2,7,0,0,0,0,0,0,0,1348,6,No
1,5,2,1,1,6,0,0,-1,0,2,3,3,844,0,No
6,5,8,0,1,6,0,0,0,0,0,0,0,1348,1,No
14,21,32,28,7,4,14,9,0,4,3,7,51,428,2,No
10,11,24,0,2,6,0,0,0,0,0,0,0,1015,0,No
7,6,7,0,1,6,0,0,0,0,0,0,0,1387,0,No
3,2,3,0,2,6,0,0,0,0,0,0,0,847,0,No
2,2,2,0,1,5,0,0,0,0,0,0,0,1144,0,No
1,1,1,0,0,5,0,0,0,0,0,0,0,1387,0,No
6,2,6,0,0,6,0,0,0,0,0,0,0,1296,0,No
14,12,28,0,3,6,0,0,0,0,0,0,0,1323,1,No
2,0,2,0,0,4,0,0,0,0,0,0,0,1348,0,No
0,0,0,0,0,5,0,0,0,0,0,0,0,1348,1,No
8,7,11,0,1,6,0,0,0,0,0,0,0,1296,0,No
6,5,6,0,1,6,0,0,0,0,0,0,0,837,0,No
8,7,18,10,3,7,10,10,10,10,3,14,39,904,2,No
11,5,12,0,1,6,0,0,0,0,0,0,0,729,0,No
7,7,10,0,0,6,0,0,0,0,0,0,0,1317,0,No
11,10,11,0,0,7,0,0,0,0,0,0,0,1317,0,Yes
19,11,32,0,1,7,0,0,0,0,0,0,0,1387,0,Yes
17,13,23,0,0,8,0,0,0,0,0,0,0,1212,0,No
5,5,5,0,0,8,0,0,0,0,0,0,0,830,0,No
14,13,16,0,1,7,0,0,0,0,0,0,0,1338,0,Yes
2,4,2,0,0,6,0,0,0,0,0,0,0,1144,0,No
4,0,4,0,0,1,0,0,0,0,0,0,0,729,0,No
2,1,3,0,1,1,0,0,0,0,0,0,0,368,0,No
2,1,3,0,1,3,0,0,0,0,0,0,0,1067,0,No
2,0,2,0,1,3,0,0,0,0,0,0,0,1067,0,No
4,1,4,0,1,5,0,0,0,0,0,0,0,837,1,No
3,1,4,0,0,1,0,0,0,0,0,0,0,346,0,No
1,2,10,0,1,4,0,0,0,0,0,0,0,834,0,No
0,0,0,0,0,4,0,0,0,0,0,0,0,1348,0,No
0,0,0,0,0,4,0,0,0,0,0,0,0,1348,0,No
3,0,3,0,0,5,0,0,0,0,0,0,0,837,0,No
1,0,2,0,1,4,0,0,0,0,0,0,0,1348,0,No
1,0,2,0,1,5,0,0,0,0,0,0,0,837,0,No
1,1,2,0,0,4,0,0,0,0,0,0,0,837,0,No
1,2,3,0,0,4,0,0,0,0,0,0,0,837,0,No
1,0,1,0,0,4,0,0,0,0,0,0,0,1348,0,No
3,0,3,0,1,5,0,0,0,0,0,0,0,1387,3,No
22,3,53,0,2,4,0,0,0,0,0,0,0,756,0,No
5,1,16,0,1,7,0,0,0,0,0,0,0,1296,1,No
2,0,2,0,0,3,0,0,0,0,0,0,0,1106,0,No
5,1,5,0,2,7,0,0,0,0,0,0,0,1296,1,No
1,1,1,0,0,4,0,0,0,0,0,0,0,1296,0,No
3,1,3,0,1,5,0,0,0,0,0,0,0,904,0,No
2,1,3,0,0,4,0,0,0,0,0,0,0,1296,0,No
5,1,8,0,2,7,0,0,0,0,0,0,0,1296,2,No
1,0,1,0,0,4,0,0,0,0,0,0,0,1348,0,No
6,1,32,0,0,6,0,0,0,0,0,0,0,904,1,No
4,1,5,0,0,7,0,0,0,0,0,0,0,904,3,No
9,1,23,0,1,8,0,0,0,0,0,0,0,904,6,No
19,0,35,0,2,6,0,0,0,0,0,0,0,904,1,No
0,0,0,0,0,3,0,0,0,0,0,0,0,1348,0,No
8,1,14,0,0,6,0,0,0,0,0,0,0,904,0,No
1,0,1,0,2,1,0,0,0,0,0,0,0,378,0,No
9,0,30,0,0,3,0,0,0,0,0,0,0,717,1,No
16,1,20,0,0,3,0,0,0,0,0,0,0,431,4,No
1,0,1,0,0,5,0,0,0,0,0,0,0,948,0,No
6,4,7,0,0,4,0,0,0,0,0,0,0,833,0,No
1,1,1,0,0,4,0,0,0,0,0,0,0,948,0,No
2,0,2,0,0,3,0,0,0,0,0,0,0,339,0,No
1,3,12,0,1,3,0,0,0,0,0,0,0,709,2,No
0,1,0,0,1,2,0,0,0,0,0,0,0,709,1,No
14,37,134,0,6,8,0,0,0,0,0,0,0,721,8,Yes
11,8,86,0,1,5,0,0,0,0,0,0,0,486,1,No
2,0,14,0,0,3,0,0,0,0,0,0,0,1254,8,No
7,11,13,0,2,7,0,0,0,0,0,0,0,1263,3,No
10,23,37,0,0,1,0,0,0,0,0,0,0,325,10,No
2,7,20,0,2,5,0,0,0,0,0,0,0,695,3,No
15,15,38,23,3,8,23,23,23,23,2,11,14,940,6,No
1,4,9,0,0,5,0,0,0,0,0,0,0,750,0,No
2,2,3,0,1,6,0,0,0,0,0,0,0,1003,0,No
2,1,2,0,1,5,0,0,0,0,0,0,0,948,0,No
5,3,11,0,1,3,0,0,0,0,0,0,0,403,1,No
5,9,33,0,2,6,0,0,0,0,0,0,0,837,2,No
7,28,39,0,2,7,0,0,0,0,0,0,0,837,2,No
13,3,18,0,0,6,0,0,0,0,0,0,0,1341,0,No
2,0,2,0,0,3,0,0,0,0,0,0,0,1348,0,No
17,4,48,0,2,5,0,0,0,0,0,0,0,1376,3,No
25,0,42,0,1,4,0,0,0,0,0,0,0,1341,0,No
6,0,15,0,2,5,0,0,0,0,0,0,0,1387,1,No
6,1,6,0,1,6,0,0,0,0,0,0,0,1361,0,No
9,2,9,0,1,4,0,0,0,0,0,0,0,1344,1,No
8,0,13,0,0,5,0,0,0,0,0,0,0,742,0,No
12,1,19,0,0,2,0,0,0,0,0,0,0,467,2,No
17,2,24,0,0,5,0,0,0,0,0,0,0,1332,0,No
21,5,28,0,2,5,0,0,0,0,0,0,0,1374,3,No
8,0,10,0,0,5,0,0,0,0,0,0,0,1022,0,No
8,2,8,0,1,5,0,0,0,0,0,0,0,1344,1,No
0,1,0,0,0,5,0,0,0,0,0,0,0,1341,0,No
23,4,30,0,0,5,0,0,0,0,0,0,0,1352,2,No
4,1,4,0,0,4,0,0,0,0,0,0,0,1376,0,No
44,7,49,2,0,6,1,1,0,0,3,14,39,1332,1,No
23,5,31,0,1,5,0,0,0,0,0,0,0,844,0,No
16,1,17,0,0,5,0,0,0,0,0,0,0,837,0,No
0,1,0,0,0,4,0,0,0,0,0,0,0,1341,0,No
6,4,6,0,2,5,0,0,0,0,0,0,0,917,0,No
18,5,18,0,0,5,0,0,0,0,0,0,0,1225,0,No
13,2,27,0,0,4,0,0,0,0,0,0,0,742,1,No
6,1,8,0,0,4,0,0,0,0,0,0,0,742,0,No
5,2,7,0,0,4,0,0,0,0,0,0,0,742,0,No
8,1,8,0,0,5,0,0,0,0,0,0,0,948,0,No
0,1,0,0,0,5,0,0,0,0,0,0,0,1341,0,No
19,4,21,0,0,7,0,0,0,0,0,0,0,948,0,No
4,1,4,0,1,3,0,0,0,0,0,0,0,1387,0,No
6,2,6,0,0,4,0,0,0,0,0,0,0,1376,0,No
5,0,10,0,0,4,0,0,0,0,0,0,0,1225,0,No
4,0,4,0,0,3,0,0,0,0,0,0,0,1225,0,No
8,4,11,0,0,4,0,0,0,0,0,0,0,834,0,No
11,4,19,0,0,5,0,0,0,0,0,0,0,1341,0,Yes
5,3,7,0,0,5,0,0,0,0,0,0,0,1183,0,No
3,2,4,0,0,5,0,0,0,0,0,0,0,1387,0,No
4,3,6,0,0,5,0,0,0,0,0,0,0,1341,0,No
0,1,0,0,0,4,0,0,0,0,0,0,0,1341,0,No
0,1,0,0,0,4,0,0,0,0,0,0,0,1341,0,No
5,3,7,0,0,6,0,0,0,0,0,0,0,1341,0,Yes
0,1,0,0,0,4,0,0,0,0,0,0,0,1341,0,No
24,7,36,0,0,6,0,0,0,0,0,0,0,1311,0,No
0,0,0,0,0,3,0,0,0,0,0,0,0,1348,0,No
11,4,19,0,0,5,0,0,0,0,0,0,0,1341,0,Yes
5,3,7,0,0,5,0,0,0,0,0,0,0,1183,0,No
3,2,4,0,0,5,0,0,0,0,0,0,0,1387,0,No
4,3,6,0,0,5,0,0,0,0,0,0,0,1341,0,No
0,1,0,0,0,4,0,0,0,0,0,0,0,1341,0,No
8,3,19,0,0,2,0,0,0,0,0,0,0,467,1,No
3,2,5,0,0,5,0,0,0,0,0,0,0,1387,0,No
0,1,0,0,0,4,0,0,0,0,0,0,0,1341,0,No
5,3,8,0,0,6,0,0,0,0,0,0,0,1341,0,No
0,1,0,0,0,4,0,0,0,0,0,0,0,1341,0,No
45,13,84,14,0,5,7,7,0,0,3,14,39,1341,0,No
54,11,94,0,3,8,0,0,0,0,0,0,0,1341,1,No
11,4,19,0,0,5,0,0,0,0,0,0,0,1341,0,Yes
5,3,7,0,0,5,0,0,0,0,0,0,0,1183,0,No
3,2,4,0,0,5,0,0,0,0,0,0,0,1387,0,No
4,3,6,0,0,5,0,0,0,0,0,0,0,1341,0,No
0,1,0,0,1,4,0,0,0,0,0,0,0,1341,0,No
10,3,23,0,0,2,0,0,0,0,0,0,0,467,1,No
3,2,5,0,0,5,0,0,0,0,0,0,0,1387,0,No
0,1,0,0,1,4,0,0,0,0,0,0,0,1341,0,No
5,3,8,0,0,6,0,0,0,0,0,0,0,1341,0,No
0,1,0,0,1,4,0,0,0,0,0,0,0,1341,0,No
5,2,5,0,0,4,0,0,0,0,0,0,0,1387,0,No
5,2,5,0,0,4,0,0,0,0,0,0,0,1387,0,No
4,5,4,0,0,6,0,0,0,0,0,0,0,1387,0,No
4,3,4,0,0,6,0,0,0,0,0,0,0,1387,0,No
5,2,5,0,0,4,0,0,0,0,0,0,0,1387,0,No
4,2,4,0,0,4,0,0,0,0,0,0,0,1387,0,No
2,1,2,0,0,5,0,0,0,0,0,0,0,1348,0,No
4,1,4,0,0,3,0,0,0,0,0,0,0,1348,0,No
5,2,5,0,0,4,0,0,0,0,0,0,0,1387,0,No
5,4,5,0,0,4,0,0,0,0,0,0,0,1387,0,No
6,3,6,0,0,4,0,0,0,0,0,0,0,1387,0,No
5,3,5,0,0,4,0,0,0,0,0,0,0,1387,0,No
5,4,5,0,0,4,0,0,0,0,0,0,0,1387,0,No
1,0,1,0,0,4,0,0,0,0,0,0,0,1348,0,No
0,0,0,0,0,5,0,0,0,0,0,0,0,1348,0,No
4,2,4,0,0,4,0,0,0,0,0,0,0,948,0,No
8,5,8,0,1,4,0,0,0,0,0,0,0,1348,0,No
7,2,7,0,0,4,0,0,0,0,0,0,0,1387,0,No
7,3,7,0,0,4,0,0,0,0,0,0,0,1387,0,No
8,6,8,6,0,4,6,6,6,6,3,14,39,1387,0,No
19,10,19,8,0,6,7,7,6,6,3,14,39,1387,0,No
5,4,5,0,0,4,0,0,0,0,0,0,0,1387,0,No
10,3,10,0,0,4,0,0,0,0,0,0,0,1387,0,No
8,3,8,0,0,4,0,0,0,0,0,0,0,1387,0,No
13,5,13,0,0,6,0,0,0,0,0,0,0,1387,0,No
4,2,4,0,0,4,0,0,0,0,0,0,0,948,0,No
5,2,5,0,0,4,0,0,0,0,0,0,0,1387,0,No
5,4,5,0,0,4,0,0,0,0,0,0,0,1387,0,No
8,10,53,0,0,9,0,0,0,0,0,0,0,1131,2,No
2,0,6,0,2,7,0,0,0,0,0,0,0,1344,2,No
8,2,12,0,0,4,0,0,0,0,0,0,0,1387,0,No
5,2,7,0,0,4,0,0,0,0,0,0,0,1376,0,No
5,2,7,0,0,4,0,0,0,0,0,0,0,1376,0,Yes
16,16,112,0,3,7,0,0,0,0,0,0,0,1387,11,No
5,3,9,0,0,4,0,0,0,0,0,0,0,1376,1,No
4,6,9,0,0,5,0,0,0,0,0,0,0,1376,0,No
2,2,5,0,1,7,0,0,0,0,0,0,0,1344,2,No
5,2,7,0,0,4,0,0,0,0,0,0,0,1376,0,No
5,7,8,0,0,4,0,0,0,0,0,0,0,1376,0,No
6,5,9,0,0,4,0,0,0,0,0,0,0,1376,0,No
5,4,8,0,0,4,0,0,0,0,0,0,0,750,0,No
5,6,7,0,0,5,0,0,0,0,0,0,0,1311,0,No
4,3,4,0,0,4,0,0,0,0,0,0,0,844,0,No
8,6,14,0,0,4,0,0,0,0,0,0,0,917,0,No
7,3,10,0,0,4,0,0,0,0,0,0,0,742,0,No
8,4,12,0,0,4,0,0,0,0,0,0,0,742,0,No
9,16,32,57,0,7,49,49,41,41,3,14,39,1332,0,No
25,17,60,82,0,7,79,79,76,76,3,14,39,1376,0,No
5,7,8,0,0,4,0,0,0,0,0,0,0,1376,0,No
11,6,21,0,0,5,0,0,0,0,0,0,0,1376,0,No
9,7,14,0,0,4,0,0,0,0,0,0,0,1376,0,No
15,11,32,0,0,9,0,0,0,0,0,0,0,1131,0,No
4,3,4,0,0,4,0,0,0,0,0,0,0,844,0,No
5,2,7,0,0,4,0,0,0,0,0,0,0,1376,0,No
5,7,8,0,0,4,0,0,0,0,0,0,0,1376,0,No
2,0,67,0,0,2,0,0,0,0,0,0,0,588,7,No
2,2,2,0,0,4,0,0,0,0,0,0,0,1358,0,No
1,2,2,0,0,5,0,0,0,0,0,0,0,1387,0,No
1,3,6,0,0,6,0,0,0,0,0,0,0,1387,0,No
1,2,2,0,1,5,0,0,0,0,0,0,0,1358,0,No
0,1,0,0,0,5,0,0,0,0,0,0,0,1387,0,No
0,0,0,0,0,3,0,0,0,0,0,0,0,1387,0,No
1,1,1,0,0,3,0,0,0,0,0,0,0,1358,0,No
2,1,2,0,3,4,0,0,0,0,0,0,0,1387,0,No
0,0,0,0,0,4,0,0,0,0,0,0,0,1183,0,No
1,2,7,0,2,5,0,0,0,0,0,0,0,1183,1,No
0,0,0,0,0,4,0,0,0,0,0,0,0,1183,0,No
1,4,10,0,2,5,0,0,0,0,0,0,0,1183,2,No
0,0,0,0,0,4,0,0,0,0,0,0,0,1183,0,No
1,3,2,0,2,3,0,0,0,0,0,0,0,484,1,No
0,0,0,0,0,4,0,0,0,0,0,0,0,1183,0,No
1,2,2,0,3,5,0,0,0,0,0,0,0,1183,1,No
1,0,2,0,0,4,0,0,0,0,0,0,0,1183,0,No
0,0,0,0,0,4,0,0,0,0,0,0,0,1183,0,No
3,5,19,0,2,7,0,0,0,0,0,0,0,1183,2,No
4,1,7,0,2,5,0,0,0,0,0,0,0,1183,0,No
0,0,0,0,0,4,0,0,0,0,0,0,0,948,0,No
1,2,7,0,2,5,0,0,0,0,0,0,0,844,0,No
0,0,0,0,0,4,0,0,0,0,0,0,0,1183,0,No
1,9,20,0,3,6,0,0,0,0,0,0,0,917,2,No
0,0,0,0,0,4,0,0,0,0,0,0,0,948,0,No
1,4,9,0,2,5,0,0,0,0,0,0,0,1183,1,No
0,0,0,0,0,4,0,0,0,0,0,0,0,948,0,No
1,3,5,0,2,5,0,0,0,0,0,0,0,948,1,No
0,0,0,0,0,4,0,0,0,0,0,0,0,948,0,No
1,2,7,0,2,8,0,0,0,0,0,0,0,948,1,No
0,0,0,0,0,4,0,0,0,0,0,0,0,1183,0,No
0,0,0,0,1,4,0,0,0,0,0,0,0,1183,0,No
2,13,17,0,1,1,0,0,0,0,0,0,0,154,0,No
1,3,5,0,2,5,0,0,0,0,0,0,0,1183,0,No
0,0,0,0,0,4,0,0,0,0,0,0,0,948,0,No
1,3,7,0,2,9,0,0,0,0,0,0,0,942,0,No
0,0,0,0,1,4,0,0,0,0,0,0,0,1183,0,No
1,2,2,0,2,3,0,0,0,0,0,0,0,484,0,No
0,0,0,0,0,4,0,0,0,0,0,0,0,1183,0,No
1,2,3,0,2,3,0,0,0,0,0,0,0,484,0,No
0,0,0,0,0,5,0,0,0,0,0,0,0,1183,0,No
3,13,23,0,2,7,0,0,0,0,0,0,0,854,0,No
1,3,24,0,2,7,0,0,0,0,0,0,0,847,0,No
0,0,0,0,0,4,0,0,0,0,0,0,0,1348,0,No
12,2,58,0,0,7,0,0,0,0,0,0,0,904,0,No
0,0,0,0,0,4,0,0,0,0,0,0,0,1348,0,No
0,0,0,0,0,5,0,0,0,0,0,0,0,1348,0,No
1,2,1,0,0,4,0,0,0,0,0,0,0,917,1,No
1,7,18,0,0,5,0,0,0,0,0,0,0,917,1,No
0,0,0,0,0,1,0,0,0,0,0,0,0,486,1,No
1,1,1,0,1,6,0,0,0,0,0,0,0,847,0,No
17,4,17,0,0,3,0,0,0,0,0,0,0,400,0,No
4,3,4,0,0,4,0,0,0,0,0,0,0,431,0,No
2,2,2,0,0,5,0,0,0,0,0,0,0,948,2,No
2,2,2,0,0,5,0,0,0,0,0,0,0,1348,0,No
16,1,42,0,1,5,0,0,0,0,0,0,0,1302,0,No
1,0,1,0,1,4,0,0,0,0,0,0,0,1387,0,No
3,3,3,0,0,4,0,0,0,0,0,0,0,739,0,No
4,2,4,0,1,2,0,0,0,0,0,0,0,487,0,No
0,0,0,0,0,6,0,0,0,0,0,0,0,1348,0,No
10,25,66,0,3,6,0,0,0,0,0,0,0,487,11,No
11,0,21,0,0,2,0,0,0,0,0,0,0,394,2,No
22,10,97,0,0,8,0,0,0,0,0,0,0,1260,40,No
4,5,10,0,0,5,0,0,0,0,0,0,0,465,0,No
2,7,11,0,3,4,0,0,0,0,0,0,0,443,0,No
2,7,12,0,1,4,0,0,0,0,0,0,0,487,1,No
20,28,67,57,9,9,35,30,13,13,4,14,20,1325,5,Yes
0,0,0,0,0,3,0,0,0,0,0,0,0,1348,0,No
4,8,7,2,2,5,1,1,0,0,2,11,14,940,1,No
1,0,1,0,2,3,0,0,0,0,0,0,0,1348,0,No
2,2,5,0,1,3,0,0,0,0,0,0,0,948,2,No
3,1,12,19,0,4,3,3,-13,0,2,11,14,816,1,No
1,0,1,0,1,3,0,0,0,0,0,0,0,1348,0,No
0,0,0,0,0,3,0,0,0,0,0,0,0,1348,0,No
4,1,5,0,1,4,0,0,0,0,0,0,0,948,0,No
0,0,0,0,0,4,0,0,0,0,0,0,0,948,0,No
2,9,11,0,0,4,0,0,0,0,0,0,0,742,1,No
0,0,0,0,0,3,0,0,0,0,0,0,0,948,1,No
2,1,2,0,0,5,0,0,0,0,0,0,0,742,0,No
0,1,0,0,0,4,0,0,0,0,0,0,0,948,0,No
7,14,42,0,2,5,0,0,0,0,0,0,0,948,4,No
2,2,11,0,1,3,0,0,0,0,0,0,0,717,0,No
7,17,49,0,2,5,0,0,0,0,0,0,0,948,5,No
10,0,10,0,0,1,0,0,0,0,0,0,0,113,0,No
6,12,19,0,1,5,0,0,0,0,0,0,0,1387,6,No
0,1,0,0,1,5,0,0,0,0,0,0,0,1348,1,No
3,4,4,0,1,5,0,0,0,0,0,0,0,1166,0,No
10,11,25,0,3,8,0,0,0,0,0,0,0,1312,3,No
14,18,43,0,3,9,0,0,0,0,0,0,0,1327,5,No
1,3,5,0,2,2,0,0,0,0,0,0,0,108,4,No
6,9,21,0,3,7,0,0,0,0,0,0,0,1339,1,No
12,19,34,0,2,7,0,0,0,0,0,0,0,1109,4,No
7,5,18,0,2,7,0,0,0,0,0,0,0,844,4,No
16,13,32,0,4,7,0,0,0,0,0,0,0,904,1,No
17,18,53,0,2,8,0,0,0,0,0,0,0,742,7,No
10,25,37,0,3,8,0,0,0,0,0,0,0,1325,2,No
12,23,42,44,4,8,30,26,16,16,3,11,17,1316,2,No
6,9,21,0,2,7,0,0,0,0,0,0,0,1344,1,No
19,26,63,0,3,7,0,0,0,0,0,0,0,1221,6,No
1,0,1,0,0,4,0,0,0,0,0,0,0,1387,0,No
0,0,0,2,1,2,1,1,0,0,3,14,39,108,0,No
40,33,86,33,8,8,23,20,13,10,4,12,20,1354,1,Yes
9,9,21,0,1,7,0,0,0,0,0,0,0,834,0,No
6,9,21,0,2,8,0,0,0,0,0,0,0,1022,1,No
7,5,7,0,2,6,0,0,0,0,0,0,0,837,1,No
13,38,150,2,4,7,1,1,0,0,2,4,6,1315,9,Yes
2,2,2,0,0,4,0,0,0,0,0,0,0,1348,0,No
2,2,2,0,0,4,0,0,0,0,0,0,0,1312,0,No
4,9,31,0,0,6,0,0,0,0,0,0,0,1327,0,No
2,2,2,0,0,5,0,0,0,0,0,0,0,1348,0,No
4,6,7,0,2,4,0,0,0,0,0,0,0,1339,0,No
3,2,3,0,1,5,0,0,0,0,0,0,0,844,0,No
3,19,35,40,1,5,38,28,36,28,5,19,45,903,0,No
7,11,23,0,0,5,0,0,0,0,0,0,0,742,1,No
13,23,57,0,3,6,0,0,0,0,0,0,0,1325,0,No
6,25,54,2,2,7,1,1,0,0,2,4,6,1337,5,No
4,10,9,0,2,5,0,0,0,0,0,0,0,1339,0,No
7,26,50,0,1,8,0,0,0,0,0,0,0,1225,1,No
8,0,10,0,0,4,0,0,0,0,0,0,0,1354,0,No
14,32,57,83,7,10,52,28,21,21,4,7,9,1337,5,Yes
6,8,10,0,0,6,0,0,0,0,0,0,0,834,0,No
4,2,4,0,0,5,0,0,0,0,0,0,0,1022,0,No
3,0,18,0,1,3,0,0,0,0,0,0,0,399,1,No
9,11,36,8,3,6,5,5,2,2,2,5,6,399,1,No
5,0,5,0,0,4,0,0,0,0,0,0,0,1323,1,No
2,2,4,0,0,4,0,0,0,0,0,0,0,536,0,No
6,9,15,0,4,7,0,0,0,0,0,0,0,1163,2,No
1,1,3,0,0,1,0,0,0,0,0,0,0,325,0,No
1,7,9,0,2,4,0,0,0,0,0,0,0,1163,0,No
10,8,10,0,1,4,0,0,0,0,0,0,0,399,0,No
14,10,16,0,0,5,0,0,0,0,0,0,0,398,0,No
1,0,1,0,0,6,0,0,0,0,0,0,0,1387,0,No
32,0,32,0,0,3,0,0,0,0,0,0,0,399,0,No
2,4,2,0,0,5,0,0,0,0,0,0,0,1387,0,No
5,7,17,0,1,4,0,0,0,0,0,0,0,414,2,No
6,4,6,0,0,2,0,0,0,0,0,0,0,393,0,No
8,10,22,0,1,4,0,0,0,0,0,0,0,394,0,No
14,9,15,0,0,3,0,0,0,0,0,0,0,393,0,No
11,10,11,0,0,5,0,0,0,0,0,0,0,398,0,No
14,7,14,0,1,3,0,0,0,0,0,0,0,392,0,No
6,11,21,0,0,4,0,0,0,0,0,0,0,395,0,No
16,17,24,0,0,5,0,0,0,0,0,0,0,388,0,No
7,5,10,0,0,2,0,0,0,0,0,0,0,393,0,No
26,10,26,0,2,5,0,0,0,0,0,0,0,389,0,No
5,4,5,0,1,6,0,0,0,0,0,0,0,1387,0,No
3,4,7,0,1,2,0,0,0,0,0,0,0,386,1,No
6,2,6,0,0,7,0,0,0,0,0,0,0,823,3,No
6,2,6,0,0,7,0,0,0,0,0,0,0,823,6,No
1,1,1,0,1,6,0,0,0,0,0,0,0,1348,0,No
15,3,20,0,0,6,0,0,0,0,0,0,0,840,0,No
7,25,29,4,3,5,3,3,2,2,2,8,14,424,0,No
6,23,71,0,3,6,0,0,0,0,0,0,0,486,1,No
27,55,133,4,9,9,2,2,0,0,2,8,14,948,15,Yes
3,0,3,0,0,3,0,0,0,0,0,0,0,1387,0,No
33,48,142,0,2,5,0,0,0,0,0,0,0,1315,22,Yes
10,1,41,0,0,7,0,0,0,0,0,0,0,882,8,No
5,4,57,0,3,7,0,0,0,0,0,0,0,771,6,No
3,0,38,0,0,1,0,0,0,0,0,0,0,324,9,No
13,1,16,0,2,1,0,0,0,0,0,0,0,358,0,No
8,1,18,0,0,5,0,0,0,0,0,0,0,1086,1,No
4,0,8,0,0,2,0,0,0,0,0,0,0,422,4,No
0,0,0,0,0,5,0,0,0,0,0,0,0,1348,0,No
9,6,36,0,2,4,0,0,0,0,0,0,0,1045,11,No
9,29,105,25,6,6,18,12,11,8,4,12,18,722,9,Yes
4,1,16,0,1,4,0,0,0,0,0,0,0,536,0,No
1,0,2,0,0,5,0,0,0,0,0,0,0,1348,1,No
4,10,20,0,0,4,0,0,0,0,0,0,0,948,0,No
1,0,5,0,1,1,0,0,0,0,0,0,0,331,0,No
5,1,14,0,1,2,0,0,0,0,0,0,0,373,0,No
6,1,6,0,1,3,0,0,0,0,0,0,0,373,0,No
7,0,8,0,0,4,0,0,0,0,0,0,0,1387,0,No
2,1,4,0,0,4,0,0,0,0,0,0,0,819,0,No
14,0,18,0,1,5,0,0,0,0,0,0,0,771,0,No
2,0,6,0,0,4,0,0,0,0,0,0,0,771,1,No
3,2,4,0,1,5,0,0,0,0,0,0,0,1003,3,No
7,3,7,0,2,5,0,0,0,0,0,0,0,465,0,No
0,1,0,0,1,5,0,0,0,0,0,0,0,948,0,No
3,0,3,0,1,6,0,0,0,0,0,0,0,1348,0,No
9,1,9,0,1,4,0,0,0,0,0,0,0,837,0,No
1,6,3,0,2,4,0,0,0,0,0,0,0,403,1,No
0,0,0,0,0,3,0,0,0,0,0,0,0,1348,0,No
5,9,5,0,0,4,0,0,0,0,0,0,0,465,0,No
10,11,10,0,1,4,0,0,0,0,0,0,0,465,0,No
4,7,4,0,0,3,0,0,0,0,0,0,0,465,0,No
13,9,13,0,1,8,0,0,0,0,0,0,0,855,0,No
14,11,18,0,6,7,0,0,0,0,0,0,0,872,0,No
10,7,10,0,1,7,0,0,0,0,0,0,0,872,1,No
25,15,80,0,5,7,0,0,0,0,0,0,0,861,14,No
3,1,5,0,1,7,0,0,0,0,0,0,0,861,3,No
1,1,1,0,0,3,0,0,0,0,0,0,0,948,0,No
13,3,15,0,0,5,0,0,0,0,0,0,0,849,2,No
17,2,26,0,0,5,0,0,0,0,0,0,0,849,1,No
1,0,1,0,0,3,0,0,0,0,0,0,0,948,0,No
4,0,4,0,0,3,0,0,0,0,0,0,0,948,0,No
18,4,21,0,0,5,0,0,0,0,0,0,0,849,2,No
22,7,40,0,0,5,0,0,0,0,0,0,0,849,1,No
2,3,2,0,0,3,0,0,0,0,0,0,0,861,0,No
1,1,1,0,1,4,0,0,0,0,0,0,0,948,0,No
1,3,1,0,0,5,0,0,0,0,0,0,0,861,0,No
1,2,2,0,1,4,0,0,0,0,0,0,0,861,0,No
1,2,1,0,0,3,0,0,0,0,0,0,0,861,0,No
1,0,1,0,0,3,0,0,0,0,0,0,0,948,1,No
1,0,1,0,0,3,0,0,0,0,0,0,0,948,1,No
1,4,1,0,0,5,0,0,0,0,0,0,0,861,0,No
2,0,6,0,0,3,0,0,0,0,0,0,0,850,2,No
6,0,19,0,1,3,0,0,0,0,0,0,0,850,1,No
3,0,9,0,0,1,0,0,0,0,0,0,0,379,5,No
2,0,9,0,1,3,0,0,0,0,0,0,0,850,2,No
5,0,17,0,0,3,0,0,0,0,0,0,0,850,1,No
1,0,10,0,0,1,0,0,0,0,0,0,0,489,5,No
4,0,5,0,0,2,0,0,0,0,0,0,0,442,1,No
1,0,2,0,0,4,0,0,0,0,0,0,0,1435,0,No
3,0,3,5,1,4,5,5,5,5,3,3,3,811,0,No
3,4,16,0,1,3,0,0,0,0,0,0,0,443,4,No
8,6,9,0,2,2,0,0,0,0,0,0,0,462,0,No
13,8,17,0,0,3,0,0,0,0,0,0,0,462,0,No
2,3,2,0,0,4,0,0,0,0,0,0,0,1435,0,No
5,6,15,0,1,3,0,0,0,0,0,0,0,462,0,No
5,3,5,0,0,3,0,0,0,0,0,0,0,457,0,No
9,8,24,0,1,4,0,0,0,0,0,0,0,458,0,No
12,6,13,0,2,3,0,0,0,0,0,0,0,461,0,No
10,9,12,0,1,3,0,0,0,0,0,0,0,461,0,No
13,5,13,0,1,2,0,0,0,0,0,0,0,463,0,No
6,8,13,0,1,3,0,0,0,0,0,0,0,457,0,No
1,0,1,0,0,4,0,0,0,0,0,0,0,1435,0,No
4,2,8,0,1,5,0,0,0,0,0,0,0,1435,0,No
15,15,35,0,2,4,0,0,0,0,0,0,0,458,1,No
6,3,9,0,0,3,0,0,0,0,0,0,0,456,0,No
25,8,25,0,2,4,0,0,0,0,0,0,0,463,0,No
5,3,5,0,1,1,0,0,0,0,0,0,0,419,0,No
2,3,2,0,1,6,0,0,0,0,0,0,0,1435,0,No
3,0,3,0,0,4,0,0,0,0,0,0,0,1435,0,No
0,0,0,0,0,6,0,0,0,0,0,0,0,996,1,No
0,0,0,0,0,5,0,0,0,0,0,0,0,996,0,No
0,1,0,0,0,4,0,0,0,0,0,0,0,996,0,No
0,0,0,0,0,4,0,0,0,0,0,0,0,996,0,No
35,1,42,0,0,5,0,0,0,0,0,0,0,1351,0,No
11,1,12,0,0,4,0,0,0,0,0,0,0,1351,0,No
11,0,12,0,0,5,0,0,0,0,0,0,0,1435,2,No
2,1,2,0,0,4,0,0,0,0,0,0,0,1435,0,No
25,0,38,0,0,4,0,0,0,0,0,0,0,1371,0,No
15,1,26,0,0,5,0,0,0,0,0,0,0,1351,2,No
2,1,2,0,0,5,0,0,0,0,0,0,0,996,0,No
1,0,1,0,0,4,0,0,0,0,0,0,0,790,0,No
10,3,10,0,0,5,0,0,0,0,0,0,0,790,0,No
12,1,14,0,0,3,0,0,0,0,0,0,0,765,0,No
10,3,10,0,0,5,0,0,0,0,0,0,0,790,0,No
0,0,0,0,0,4,0,0,0,0,0,0,0,1396,1,No
7,1,11,0,0,4,0,0,0,0,0,0,0,1282,0,No
3,1,3,0,0,4,0,0,0,0,0,0,0,1392,0,No
5,1,6,0,0,4,0,0,0,0,0,0,0,1435,1,No
29,1,51,0,0,5,0,0,0,0,0,0,0,1282,1,No
3,1,3,0,0,5,0,0,0,0,0,0,0,1435,0,No
1,0,1,0,0,4,0,0,0,0,0,0,0,1396,0,No
8,3,8,0,1,3,0,0,0,0,0,0,0,462,0,No
13,7,13,0,1,3,0,0,0,0,0,0,0,462,0,No
2,1,2,0,0,4,0,0,0,0,0,0,0,1435,0,No
0,0,0,0,0,5,0,0,0,0,0,0,0,1396,0,No
5,3,5,0,1,3,0,0,0,0,0,0,0,462,1,No
5,1,5,0,0,4,0,0,0,0,0,0,0,457,0,No
7,3,7,0,1,3,0,0,0,0,0,0,0,458,0,No
12,3,12,0,1,3,0,0,0,0,0,0,0,461,0,No
2,0,2,0,0,5,0,0,0,0,0,0,0,1435,0,No
10,6,10,0,0,3,0,0,0,0,0,0,0,461,0,No
13,3,13,0,0,3,0,0,0,0,0,0,0,463,0,No
5,3,5,0,0,3,0,0,0,0,0,0,0,457,0,No
14,8,14,0,0,4,0,0,0,0,0,0,0,458,0,No
6,1,6,0,0,3,0,0,0,0,0,0,0,457,1,No
25,6,25,0,1,5,0,0,0,0,0,0,0,463,0,No
5,2,5,0,1,5,0,0,0,0,0,0,0,1435,0,No
2,2,2,0,1,4,0,0,0,0,0,0,0,462,0,No
20,0,29,0,0,6,0,0,0,0,0,0,0,1402,1,No
10,1,14,0,0,4,0,0,0,0,0,0,0,1273,0,No
2,1,2,0,0,4,0,0,0,0,0,0,0,1435,0,No
2,2,2,0,0,4,0,0,0,0,0,0,0,1435,0,No
8,1,13,0,0,5,0,0,0,0,0,0,0,1435,2,No
6,1,8,0,0,2,0,0,0,0,0,0,0,394,0,No
9,1,16,0,0,2,0,0,0,0,0,0,0,394,1,No
4,1,4,0,0,4,0,0,0,0,0,0,0,1435,0,No
14,2,14,0,0,4,0,0,0,0,0,0,0,1373,0,No
3,1,3,0,0,4,0,0,0,0,0,0,0,1435,2,No
23,3,31,0,0,7,0,0,0,0,0,0,0,1375,2,No
5,1,7,0,1,5,0,0,0,0,0,0,0,811,0,No
3,1,3,0,0,5,0,0,0,0,0,0,0,1435,0,No
2,0,2,0,0,4,0,0,0,0,0,0,0,1392,0,No
3,1,3,0,0,1,0,0,0,0,0,0,0,463,0,No
8,2,10,0,2,2,0,0,0,0,0,0,0,156,0,No
3,1,3,0,0,4,0,0,0,0,0,0,0,1435,0,No
4,2,4,0,0,4,0,0,0,0,0,0,0,1435,0,No
3,1,3,0,0,4,0,0,0,0,0,0,0,1435,0,No
16,3,16,0,0,5,0,0,0,0,0,0,0,1380,0,No
11,2,27,0,1,4,0,0,0,0,0,0,0,515,2,No
12,0,12,0,0,5,0,0,0,0,0,0,0,1435,2,No
24,4,27,0,0,6,0,0,0,0,0,0,0,892,0,No
16,1,18,0,0,5,0,0,0,0,0,0,0,885,1,No
2,2,2,0,0,4,0,0,0,0,0,0,0,1435,0,No
8,2,8,0,0,4,0,0,0,0,0,0,0,1435,0,No
3,1,3,0,0,1,0,0,0,0,0,0,0,463,0,No
6,1,9,0,0,2,0,0,0,0,0,0,0,442,1,No
10,2,10,0,0,5,0,0,0,0,0,0,0,787,0,No
18,3,18,0,0,4,0,0,0,0,0,0,0,1273,0,No
2,0,2,0,0,4,0,0,0,0,0,0,0,996,0,No
24,4,32,0,0,5,0,0,0,0,0,0,0,790,0,No
42,4,42,0,1,4,0,0,0,0,0,0,0,1371,0,No
30,0,37,0,1,5,0,0,0,0,0,0,0,1364,1,No
12,0,16,0,0,5,0,0,0,0,0,0,0,1435,0,No
18,1,19,0,0,6,0,0,0,0,0,0,0,1435,0,No
3,1,3,0,0,1,0,0,0,0,0,0,0,463,0,No
2,2,2,0,0,4,0,0,0,0,0,0,0,1435,0,No
18,0,18,0,0,4,0,0,0,0,0,0,0,996,0,No
2,0,2,0,0,4,0,0,0,0,0,0,0,1273,0,No
12,1,16,0,0,6,0,0,0,0,0,0,0,1273,0,No
1,0,1,0,0,5,0,0,0,0,0,0,0,1435,0,No
10,3,13,0,0,5,0,0,0,0,0,0,0,882,1,No
25,0,31,0,0,5,0,0,0,0,0,0,0,1402,1,No
3,1,3,0,0,4,0,0,0,0,0,0,0,1435,0,No
2,0,2,0,0,5,0,0,0,0,0,0,0,1435,0,No
4,1,4,0,0,4,0,0,0,0,0,0,0,996,0,No
20,2,21,0,0,4,0,0,0,0,0,0,0,898,0,No
20,1,27,0,0,6,0,0,0,0,0,0,0,898,2,No
0,1,0,0,0,4,0,0,0,0,0,0,0,1396,1,No
22,1,26,0,0,5,0,0,0,0,0,0,0,1396,0,No
1,0,1,0,0,5,0,0,0,0,0,0,0,1396,1,No
2,0,4,0,0,4,0,0,0,0,0,0,0,1435,3,No
1,0,1,0,2,5,0,0,0,0,0,0,0,1435,1,No
7,4,10,0,2,3,0,0,0,0,0,0,0,749,0,No
2,0,2,0,0,5,0,0,0,0,0,0,0,1396,2,No
1,0,1,0,0,6,0,0,0,0,0,0,0,1396,1,No
15,1,17,0,0,5,0,0,0,0,0,0,0,1435,1,No
7,1,7,0,0,4,0,0,0,0,0,0,0,1435,1,No
1,0,1,0,0,4,0,0,0,0,0,0,0,1396,0,No
1,0,1,0,0,5,0,0,0,0,0,0,0,1396,1,No
2,0,2,0,2,3,0,0,0,0,0,0,0,722,1,No
5,0,17,0,2,7,0,0,0,0,0,0,0,1396,9,No
1,0,1,0,0,5,0,0,0,0,0,0,0,1396,1,No
0,0,0,0,1,2,0,0,0,0,0,0,0,416,0,No
48,1,52,0,0,6,0,0,0,0,0,0,0,965,0,No
2,0,2,0,0,5,0,0,0,0,0,0,0,1396,1,No
0,0,0,0,0,4,0,0,0,0,0,0,0,1396,0,No
2,0,3,0,0,5,0,0,0,0,0,0,0,1396,1,No
0,0,0,0,0,4,0,0,0,0,0,0,0,1396,0,No
1,0,1,0,0,5,0,0,0,0,0,0,0,1396,1,No
1,0,1,0,0,5,0,0,0,0,0,0,0,1396,1,No
2,4,2,0,1,4,0,0,0,0,0,0,0,996,1,No
10,2,11,0,0,8,0,0,0,0,0,0,0,1396,0,No
3,0,6,0,4,4,0,0,0,0,0,0,0,1380,1,No
2,0,9,0,0,4,0,0,0,0,0,0,0,798,0,No
1,0,1,0,0,4,0,0,0,0,0,0,0,1396,0,No
2,0,5,0,0,5,0,0,0,0,0,0,0,996,3,No
0,0,0,0,0,4,0,0,0,0,0,0,0,1396,0,No
1,0,1,0,0,5,0,0,0,0,0,0,0,996,1,No
0,0,0,0,0,4,0,0,0,0,0,0,0,996,0,No
0,0,0,0,0,4,0,0,0,0,0,0,0,1396,0,No
10,11,54,0,1,6,0,0,0,0,0,0,0,878,0,No
17,10,34,0,2,4,0,0,0,0,0,0,0,447,0,No
2,4,18,0,2,2,0,0,0,0,0,0,0,156,2,No
7,1,14,0,2,6,0,0,0,0,0,0,0,1380,0,No
1,1,11,0,2,4,0,0,0,0,0,0,0,1380,2,No
8,1,8,0,0,5,0,0,0,0,0,0,0,1380,0,No
8,14,18,0,0,6,0,0,0,0,0,0,0,1396,0,No
1,1,7,0,1,3,0,0,0,0,0,0,0,1259,1,No
13,31,14,0,2,7,0,0,0,0,0,0,0,1396,0,No
4,4,10,0,1,6,0,0,0,0,0,0,0,888,2,No
3,0,3,0,0,2,0,0,0,0,0,0,0,597,0,No
0,0,0,0,0,2,0,0,0,0,0,0,0,328,0,No
0,0,0,0,0,4,0,0,0,0,0,0,0,1396,0,No
3,1,4,0,0,5,0,0,0,0,0,0,0,996,2,No
6,1,10,0,0,4,0,0,0,0,0,0,0,777,0,No
3,0,3,0,0,2,0,0,0,0,0,0,0,434,1,No
2,0,2,0,0,5,0,0,0,0,0,0,0,996,0,No
10,0,21,0,2,6,0,0,0,0,0,0,0,1150,3,No
7,2,12,0,0,4,0,0,0,0,0,0,0,1155,1,No
1,1,4,0,0,3,0,0,0,0,0,0,0,1435,1,No
1,6,3,0,1,4,0,0,0,0,0,0,0,1065,0,No
13,2,13,0,0,5,0,0,0,0,0,0,0,1287,2,No
2,0,3,0,0,3,0,0,0,0,0,0,0,1435,0,No
7,0,12,0,0,5,0,0,0,0,0,0,0,995,1,No
2,3,12,0,2,6,0,0,0,0,0,0,0,1113,2,No
2,0,7,0,1,5,0,0,0,0,0,0,0,1115,0,No
7,0,7,0,0,3,0,0,0,0,0,0,0,1435,0,No
9,6,34,0,0,4,0,0,0,0,0,0,0,778,2,No
2,0,8,0,0,6,0,0,0,0,0,0,0,1224,0,No
8,3,28,0,0,4,0,0,0,0,0,0,0,777,2,No
2,0,4,0,0,1,0,0,0,0,0,0,0,434,0,No
4,8,4,0,0,4,0,0,0,0,0,0,0,1396,0,Yes
3,7,8,0,1,6,0,0,0,0,0,0,0,995,1,No
2,2,2,0,0,5,0,0,0,0,0,0,0,1065,0,No
10,12,29,0,3,5,0,0,0,0,0,0,0,895,2,Yes
1,1,1,0,1,5,0,0,0,0,0,0,0,1396,0,No
9,4,16,0,2,7,0,0,0,0,0,0,0,1396,2,No
6,6,7,0,2,3,0,0,0,0,0,0,0,394,1,No
4,2,4,0,0,3,0,0,0,0,0,0,0,394,0,No
36,20,54,0,4,7,0,0,0,0,0,0,0,1396,16,Yes
4,4,7,0,1,6,0,0,0,0,0,0,0,1290,4,No
3,5,13,0,0,2,0,0,0,0,0,0,0,400,0,No
13,16,42,0,2,7,0,0,0,0,0,0,0,1371,3,Yes
4,7,12,0,2,6,0,0,0,0,0,0,0,1371,1,No
11,3,16,0,3,6,0,0,0,0,0,0,0,1344,1,No
2,8,5,0,5,5,0,0,0,0,0,0,0,790,0,No
0,0,0,0,1,3,0,0,0,0,0,0,0,1396,0,No
0,0,0,0,0,3,0,0,0,0,0,0,0,996,0,No
0,0,0,0,0,1,0,0,0,0,0,0,0,265,0,No
0,0,0,0,0,3,0,0,0,0,0,0,0,1396,0,No
0,1,0,0,0,2,0,0,0,0,0,0,0,437,2,No
11,10,15,2,5,7,1,1,0,0,3,3,3,1395,9,No
0,2,0,0,0,5,0,0,0,0,0,0,0,1394,1,No
4,5,4,0,1,6,0,0,0,0,0,0,0,1344,2,No
11,14,22,0,7,7,0,0,0,0,0,0,0,885,7,No
0,3,0,0,1,6,0,0,0,0,0,0,0,885,0,No
23,19,49,0,4,7,0,0,0,0,0,0,0,895,7,No
0,2,0,0,1,4,0,0,0,0,0,0,0,1065,0,No
3,3,3,0,0,4,0,0,0,0,0,0,0,777,0,No
39,19,75,0,4,7,0,0,0,0,0,0,0,777,3,No
11,17,70,0,3,6,0,0,0,0,0,0,0,765,3,Yes
19,17,43,0,8,8,0,0,0,0,0,0,0,1396,5,No
5,8,18,0,8,7,0,0,0,0,0,0,0,1365,3,No
35,13,43,0,6,7,0,0,0,0,0,0,0,1396,13,No
13,10,36,0,1,5,0,0,0,0,0,0,0,778,3,No
5,6,9,0,5,7,0,0,0,0,0,0,0,1344,1,No
4,5,6,0,0,4,0,0,0,0,0,0,0,528,1,No
1,2,1,0,0,5,0,0,0,0,0,0,0,1065,0,No
8,9,14,0,4,7,0,0,0,0,0,0,0,1396,5,No
1,2,1,0,0,6,0,0,0,0,0,0,0,995,0,No
19,14,35,0,4,7,0,0,0,0,0,0,0,1389,2,No
10,11,41,0,2,8,0,0,0,0,0,0,0,1371,6,Yes
5,5,8,0,1,6,0,0,0,0,0,0,0,804,2,No
1,5,2,0,1,6,0,0,0,0,0,0,0,995,0,No
11,14,19,0,5,7,0,0,0,0,0,0,0,1260,2,No
11,12,16,0,3,7,0,0,0,0,0,0,0,1396,0,No
24,13,37,0,3,7,0,0,0,0,0,0,0,895,8,No
10,8,18,0,5,7,0,0,0,0,0,0,0,1344,4,No
3,5,5,0,0,4,0,0,0,0,0,0,0,528,1,No
2,5,11,0,1,5,0,0,0,0,0,0,0,790,3,No
2,2,2,0,0,5,0,0,0,0,0,0,0,1065,0,No
7,10,11,0,5,7,0,0,0,0,0,0,0,1396,4,No
2,1,2,0,0,5,0,0,0,0,0,0,0,1065,0,No
4,7,12,0,1,6,0,0,0,0,0,0,0,1065,1,No
1,2,1,0,0,6,0,0,0,0,0,0,0,1396,0,No
12,15,51,0,1,3,0,0,0,0,0,0,0,476,0,Yes
17,9,23,0,6,7,0,0,0,0,0,0,0,888,1,No
0,3,0,0,0,2,0,0,0,0,0,0,0,328,0,Yes
0,3,0,0,0,5,0,0,0,0,0,0,0,790,0,No
13,8,16,0,2,3,0,0,0,0,0,0,0,394,3,No
8,19,38,0,1,7,0,0,0,0,0,0,0,980,2,Yes
9,8,13,0,2,6,0,0,0,0,0,0,0,1063,0,No
8,4,18,0,2,2,0,0,0,0,0,0,0,156,3,No
2,0,2,0,0,4,0,0,0,0,0,0,0,1396,0,No
21,11,46,0,4,3,0,0,0,0,0,0,0,156,1,No
11,13,29,0,3,5,0,0,0,0,0,0,0,980,0,Yes
10,10,19,0,2,7,0,0,0,0,0,0,0,1396,6,Yes
15,15,23,0,3,7,0,0,0,0,0,0,0,946,3,No
14,15,34,0,1,7,0,0,0,0,0,0,0,952,1,Yes
11,12,20,0,2,7,0,0,0,0,0,0,0,1396,6,Yes
6,15,27,0,2,7,0,0,0,0,0,0,0,790,2,Yes
7,11,11,0,0,7,0,0,0,0,0,0,0,790,1,Yes
20,19,93,0,9,8,0,0,0,0,0,0,0,790,3,Yes
5,5,15,0,0,7,0,0,0,0,0,0,0,904,1,No
6,13,18,0,2,7,0,0,0,0,0,0,0,980,2,No
19,10,36,0,2,3,0,0,0,0,0,0,0,528,0,Yes
6,7,6,0,2,7,0,0,0,0,0,0,0,881,3,Yes
5,3,5,0,1,4,0,0,0,0,0,0,0,476,1,No
11,12,15,0,4,4,0,0,0,0,0,0,0,476,1,No
6,7,11,0,0,7,0,0,0,0,0,0,0,904,1,No
7,7,7,0,0,5,0,0,0,0,0,0,0,881,5,No
9,15,10,0,2,6,0,0,0,0,0,0,0,881,4,No
12,12,22,0,2,7,0,0,0,0,0,0,0,1396,6,Yes
14,3,28,0,0,3,0,0,0,0,0,0,0,476,4,No
3,6,4,0,2,5,0,0,0,0,0,0,0,528,0,No
10,1,14,0,2,2,0,0,0,0,0,0,0,156,0,No
10,15,24,0,1,6,0,0,0,0,0,0,0,790,5,No
16,14,26,0,2,7,0,0,0,0,0,0,0,1396,6,Yes
1,5,2,0,1,6,0,0,0,0,0,0,0,892,0,Yes
6,5,8,0,1,6,0,0,0,0,0,0,0,1396,1,No
14,21,32,0,7,4,0,0,0,0,0,0,0,476,2,No
10,11,24,0,2,6,0,0,0,0,0,0,0,1063,0,No
7,6,7,0,1,6,0,0,0,0,0,0,0,1435,0,No
3,2,3,0,2,6,0,0,0,0,0,0,0,895,0,No
2,2,2,0,1,5,0,0,0,0,0,0,0,1192,0,No
1,1,1,0,0,5,0,0,0,0,0,0,0,1435,0,No
6,2,6,0,0,6,0,0,0,0,0,0,0,1344,0,No
14,12,28,0,3,6,0,0,0,0,0,0,0,1371,1,No
2,0,2,0,0,4,0,0,0,0,0,0,0,1396,0,No
0,0,0,0,0,5,0,0,0,0,0,0,0,1396,1,No
8,7,11,0,1,6,0,0,0,0,0,0,0,1344,0,No
6,5,6,0,1,6,0,0,0,0,0,0,0,885,0,No
8,7,18,0,3,7,0,0,0,0,0,0,0,952,2,No
11,5,12,0,1,6,0,0,0,0,0,0,0,777,0,No
7,7,10,0,0,6,0,0,0,0,0,0,0,1365,0,No
11,10,11,0,0,7,0,0,0,0,0,0,0,1365,0,Yes
19,11,32,0,1,7,0,0,0,0,0,0,0,1435,0,Yes
17,13,23,0,0,8,0,0,0,0,0,0,0,1260,0,No
5,5,5,0,0,8,0,0,0,0,0,0,0,878,0,No
14,13,16,0,1,7,0,0,0,0,0,0,0,1386,0,Yes
2,4,2,0,0,6,0,0,0,0,0,0,0,1192,0,No
4,0,4,0,0,1,0,0,0,0,0,0,0,777,0,No
2,1,3,0,1,1,0,0,0,0,0,0,0,416,0,No
2,1,3,0,1,3,0,0,0,0,0,0,0,1115,0,No
2,0,2,0,1,3,0,0,0,0,0,0,0,1115,0,No
4,1,4,0,1,5,0,0,0,0,0,0,0,885,1,No
3,1,4,0,0,1,0,0,0,0,0,0,0,394,0,No
1,2,10,0,1,4,0,0,0,0,0,0,0,882,0,No
0,0,0,0,0,4,0,0,0,0,0,0,0,1396,0,No
0,0,0,0,0,4,0,0,0,0,0,0,0,1396,0,No
3,0,3,0,0,5,0,0,0,0,0,0,0,885,0,No
1,0,2,0,1,4,0,0,0,0,0,0,0,1396,0,No
1,0,2,0,1,5,0,0,0,0,0,0,0,885,0,No
1,1,2,0,0,4,0,0,0,0,0,0,0,885,0,No
1,2,3,0,0,4,0,0,0,0,0,0,0,885,0,No
1,0,1,0,0,4,0,0,0,0,0,0,0,1396,0,No
3,0,3,0,1,5,0,0,0,0,0,0,0,1435,3,No
22,3,53,0,2,4,0,0,0,0,0,0,0,804,0,No
5,1,16,0,1,7,0,0,0,0,0,0,0,1344,1,No
2,0,2,0,0,3,0,0,0,0,0,0,0,1154,0,No
5,1,5,0,2,7,0,0,0,0,0,0,0,1344,1,No
1,1,1,0,0,4,0,0,0,0,0,0,0,1344,0,No
3,1,3,0,1,5,0,0,0,0,0,0,0,952,0,No
2,1,3,0,0,4,0,0,0,0,0,0,0,1344,0,No
5,1,8,0,2,7,0,0,0,0,0,0,0,1344,2,No
1,0,1,0,0,4,0,0,0,0,0,0,0,1396,0,No
6,1,32,0,0,6,0,0,0,0,0,0,0,952,1,No
4,1,5,0,0,7,0,0,0,0,0,0,0,952,3,No
9,1,23,0,1,8,0,0,0,0,0,0,0,952,6,No
19,0,35,0,2,6,0,0,0,0,0,0,0,952,1,Yes
0,0,0,0,0,3,0,0,0,0,0,0,0,1396,0,No
8,1,14,0,0,6,0,0,0,0,0,0,0,952,0,No
1,0,1,0,2,1,0,0,0,0,0,0,0,426,0,No
9,0,30,0,0,3,0,0,0,0,0,0,0,765,1,No
16,1,20,0,0,3,0,0,0,0,0,0,0,479,4,No
1,0,1,0,0,5,0,0,0,0,0,0,0,996,0,No
6,4,7,0,0,4,0,0,0,0,0,0,0,881,0,No
1,1,1,0,0,4,0,0,0,0,0,0,0,996,0,No
2,0,2,0,0,3,0,0,0,0,0,0,0,387,0,No
1,3,12,0,1,3,0,0,0,0,0,0,0,757,2,No
0,1,0,0,1,2,0,0,0,0,0,0,0,757,1,No
14,37,134,2,6,8,1,1,0,0,1,9,15,769,8,Yes
11,8,86,0,1,5,0,0,0,0,0,0,0,534,1,No
2,0,14,0,0,3,0,0,0,0,0,0,0,1302,8,No
7,11,13,0,2,7,0,0,0,0,0,0,0,1311,3,No
10,23,37,0,0,1,0,0,0,0,0,0,0,373,10,No
2,7,20,0,2,5,0,0,0,0,0,0,0,743,3,No
15,15,38,0,3,8,0,0,0,0,0,0,0,988,6,No
1,4,9,0,0,5,0,0,0,0,0,0,0,798,0,No
2,2,3,0,1,6,0,0,0,0,0,0,0,1051,0,No
2,1,2,0,1,5,0,0,0,0,0,0,0,996,0,No
5,3,11,0,1,3,0,0,0,0,0,0,0,451,1,No
5,9,33,0,2,6,0,0,0,0,0,0,0,885,2,No
9,28,43,124,2,8,76,52,28,36,4,11,12,885,3,No
13,3,18,0,0,6,0,0,0,0,0,0,0,1389,0,No
2,0,2,0,0,3,0,0,0,0,0,0,0,1396,0,No
17,4,48,0,2,5,0,0,0,0,0,0,0,1424,3,No
25,0,42,0,1,4,0,0,0,0,0,0,0,1389,0,No
6,0,15,0,2,5,0,0,0,0,0,0,0,1435,1,No
6,1,6,2,1,6,1,1,0,0,1,9,15,1409,0,No
9,2,9,0,1,4,0,0,0,0,0,0,0,1392,1,No
8,0,13,0,0,5,0,0,0,0,0,0,0,790,0,No
12,1,19,0,0,2,0,0,0,0,0,0,0,515,2,No
17,2,24,0,0,5,0,0,0,0,0,0,0,1380,0,No
21,5,28,0,2,5,0,0,0,0,0,0,0,1422,3,No
8,0,10,0,0,5,0,0,0,0,0,0,0,1070,0,No
8,2,8,0,1,5,0,0,0,0,0,0,0,1392,1,No
0,1,0,0,0,5,0,0,0,0,0,0,0,1389,0,No
23,4,30,0,0,5,0,0,0,0,0,0,0,1400,2,No
4,1,4,0,0,4,0,0,0,0,0,0,0,1424,0,No
44,7,49,0,0,6,0,0,0,0,0,0,0,1380,1,No
23,5,31,0,1,5,0,0,0,0,0,0,0,892,0,No
16,1,17,0,0,5,0,0,0,0,0,0,0,885,0,No
0,1,0,0,0,4,0,0,0,0,0,0,0,1389,0,No
6,4,6,0,2,5,0,0,0,0,0,0,0,965,0,No
18,5,18,0,0,5,0,0,0,0,0,0,0,1273,0,No
13,2,27,0,0,4,0,0,0,0,0,0,0,790,1,No
6,1,8,0,0,4,0,0,0,0,0,0,0,790,0,No
5,2,7,0,0,4,0,0,0,0,0,0,0,790,0,No
8,1,8,0,0,5,0,0,0,0,0,0,0,996,0,No
0,1,0,0,0,5,0,0,0,0,0,0,0,1389,0,No
19,4,21,0,0,7,0,0,0,0,0,0,0,996,0,Yes
4,1,4,0,1,3,0,0,0,0,0,0,0,1435,0,No
6,2,6,0,0,4,0,0,0,0,0,0,0,1424,0,No
5,0,10,0,0,4,0,0,0,0,0,0,0,1273,0,No
4,0,4,0,0,3,0,0,0,0,0,0,0,1273,0,No
8,4,11,0,0,4,0,0,0,0,0,0,0,882,0,No
11,4,19,0,0,5,0,0,0,0,0,0,0,1389,0,Yes
5,3,7,0,0,5,0,0,0,0,0,0,0,1231,0,No
3,2,4,0,0,5,0,0,0,0,0,0,0,1435,0,No
4,3,6,0,0,5,0,0,0,0,0,0,0,1389,0,No
0,1,0,0,0,4,0,0,0,0,0,0,0,1389,0,No
0,1,0,0,0,4,0,0,0,0,0,0,0,1389,0,No
5,3,7,0,0,6,0,0,0,0,0,0,0,1389,0,Yes
0,1,0,0,0,4,0,0,0,0,0,0,0,1389,0,No
24,7,36,0,0,6,0,0,0,0,0,0,0,1359,0,No
0,0,0,0,0,3,0,0,0,0,0,0,0,1396,0,No
11,4,19,0,0,5,0,0,0,0,0,0,0,1389,0,Yes
5,3,7,0,0,5,0,0,0,0,0,0,0,1231,0,No
3,2,4,0,0,5,0,0,0,0,0,0,0,1435,0,No
4,3,6,0,0,5,0,0,0,0,0,0,0,1389,0,No
0,1,0,0,0,4,0,0,0,0,0,0,0,1389,0,No
8,3,19,0,0,2,0,0,0,0,0,0,0,515,1,No
3,2,5,0,0,5,0,0,0,0,0,0,0,1435,0,No
0,1,0,0,0,4,0,0,0,0,0,0,0,1389,0,No
5,3,8,0,0,6,0,0,0,0,0,0,0,1389,0,No
0,1,0,0,0,4,0,0,0,0,0,0,0,1389,0,No
45,13,84,0,0,5,0,0,0,0,0,0,0,1389,0,No
54,11,94,0,3,8,0,0,0,0,0,0,0,1389,1,No
11,4,19,0,0,5,0,0,0,0,0,0,0,1389,0,Yes
5,3,7,0,0,5,0,0,0,0,0,0,0,1231,0,No
3,2,4,0,0,5,0,0,0,0,0,0,0,1435,0,No
4,3,6,0,0,5,0,0,0,0,0,0,0,1389,0,No
0,1,0,0,1,4,0,0,0,0,0,0,0,1389,0,No
10,3,23,0,0,2,0,0,0,0,0,0,0,515,1,No
3,2,5,0,0,5,0,0,0,0,0,0,0,1435,0,No
0,1,0,0,1,4,0,0,0,0,0,0,0,1389,0,No
5,3,8,0,0,6,0,0,0,0,0,0,0,1389,0,No
0,1,0,0,1,4,0,0,0,0,0,0,0,1389,0,No
5,2,5,0,0,4,0,0,0,0,0,0,0,1435,0,No
5,2,5,0,0,4,0,0,0,0,0,0,0,1435,0,No
4,5,4,0,0,6,0,0,0,0,0,0,0,1435,0,No
4,3,4,0,0,6,0,0,0,0,0,0,0,1435,0,No
5,2,5,0,0,4,0,0,0,0,0,0,0,1435,0,No
4,2,4,0,0,4,0,0,0,0,0,0,0,1435,0,No
2,1,2,0,0,5,0,0,0,0,0,0,0,1396,0,No
4,1,4,0,0,3,0,0,0,0,0,0,0,1396,0,No
5,2,5,0,0,4,0,0,0,0,0,0,0,1435,0,No
5,4,5,0,0,4,0,0,0,0,0,0,0,1435,0,No
6,3,6,0,0,4,0,0,0,0,0,0,0,1435,0,No
5,3,5,0,0,4,0,0,0,0,0,0,0,1435,0,No
5,4,5,0,0,4,0,0,0,0,0,0,0,1435,0,No
1,0,1,0,0,4,0,0,0,0,0,0,0,1396,0,No
0,0,0,0,0,5,0,0,0,0,0,0,0,1396,0,No
4,2,4,0,0,4,0,0,0,0,0,0,0,996,0,No
8,5,8,0,1,4,0,0,0,0,0,0,0,1396,0,No
7,2,7,0,0,4,0,0,0,0,0,0,0,1435,0,No
7,3,7,0,0,4,0,0,0,0,0,0,0,1435,0,No
8,6,8,0,0,4,0,0,0,0,0,0,0,1435,0,No
19,10,19,0,0,6,0,0,0,0,0,0,0,1435,0,No
5,4,5,0,0,4,0,0,0,0,0,0,0,1435,0,No
10,3,10,0,0,4,0,0,0,0,0,0,0,1435,0,No
8,3,8,0,0,4,0,0,0,0,0,0,0,1435,0,No
13,5,13,0,0,6,0,0,0,0,0,0,0,1435,0,No
4,2,4,0,0,4,0,0,0,0,0,0,0,996,0,No
5,2,5,0,0,4,0,0,0,0,0,0,0,1435,0,No
5,4,5,0,0,4,0,0,0,0,0,0,0,1435,0,No
8,10,53,0,0,9,0,0,0,0,0,0,0,1179,2,No
2,0,6,0,2,7,0,0,0,0,0,0,0,1392,2,No
8,2,12,0,0,4,0,0,0,0,0,0,0,1435,0,No
5,2,7,0,0,4,0,0,0,0,0,0,0,1424,0,No
5,2,7,0,0,4,0,0,0,0,0,0,0,1424,0,Yes
16,16,112,0,3,7,0,0,0,0,0,0,0,1435,11,No
5,3,9,0,0,4,0,0,0,0,0,0,0,1424,1,No
4,6,9,0,0,5,0,0,0,0,0,0,0,1424,0,No
2,2,5,0,1,7,0,0,0,0,0,0,0,1392,2,No
5,2,7,0,0,4,0,0,0,0,0,0,0,1424,0,No
5,7,8,0,0,4,0,0,0,0,0,0,0,1424,0,No
6,5,9,0,0,4,0,0,0,0,0,0,0,1424,0,No
5,4,8,0,0,4,0,0,0,0,0,0,0,798,0,No
5,6,7,0,0,5,0,0,0,0,0,0,0,1359,0,No
4,3,4,0,0,4,0,0,0,0,0,0,0,892,0,No
8,6,14,0,0,4,0,0,0,0,0,0,0,965,0,No
7,3,10,0,0,4,0,0,0,0,0,0,0,790,0,No
8,4,12,0,0,4,0,0,0,0,0,0,0,790,0,No
9,16,32,0,0,7,0,0,0,0,0,0,0,1380,0,No
25,17,60,0,0,7,0,0,0,0,0,0,0,1424,0,No
5,7,8,0,0,4,0,0,0,0,0,0,0,1424,0,No
11,6,21,0,0,5,0,0,0,0,0,0,0,1424,0,No
9,7,14,0,0,4,0,0,0,0,0,0,0,1424,0,No
15,11,32,0,0,9,0,0,0,0,0,0,0,1179,0,No
4,3,4,0,0,4,0,0,0,0,0,0,0,892,0,No
5,2,7,0,0,4,0,0,0,0,0,0,0,1424,0,No
5,7,8,0,0,4,0,0,0,0,0,0,0,1424,0,No
2,0,67,0,0,2,0,0,0,0,0,0,0,636,7,No
2,2,2,0,0,4,0,0,0,0,0,0,0,1406,0,No
1,2,2,0,0,5,0,0,0,0,0,0,0,1435,0,No
1,3,6,0,0,6,0,0,0,0,0,0,0,1435,0,No
1,2,2,0,1,5,0,0,0,0,0,0,0,1406,0,No
0,1,0,0,0,5,0,0,0,0,0,0,0,1435,0,No
0,0,0,0,0,3,0,0,0,0,0,0,0,1435,0,No
1,1,1,0,0,3,0,0,0,0,0,0,0,1406,0,No
2,1,2,0,3,4,0,0,0,0,0,0,0,1435,0,No
0,0,0,0,0,4,0,0,0,0,0,0,0,1231,0,No
1,2,7,0,2,5,0,0,0,0,0,0,0,1231,1,No
0,0,0,0,0,4,0,0,0,0,0,0,0,1231,0,No
1,4,10,0,2,5,0,0,0,0,0,0,0,1231,2,No
0,0,0,0,0,4,0,0,0,0,0,0,0,1231,0,No
1,3,2,0,2,3,0,0,0,0,0,0,0,532,1,No
0,0,0,0,0,4,0,0,0,0,0,0,0,1231,0,No
1,2,2,0,3,5,0,0,0,0,0,0,0,1231,1,No
1,0,2,0,0,4,0,0,0,0,0,0,0,1231,0,No
0,0,0,0,0,4,0,0,0,0,0,0,0,1231,0,No
3,5,19,0,2,7,0,0,0,0,0,0,0,1231,2,No
4,1,7,0,2,5,0,0,0,0,0,0,0,1231,0,No
0,0,0,0,0,4,0,0,0,0,0,0,0,996,0,No
1,2,7,0,2,5,0,0,0,0,0,0,0,892,0,No
0,0,0,0,0,4,0,0,0,0,0,0,0,1231,0,No
1,9,20,0,3,6,0,0,0,0,0,0,0,965,2,No
0,0,0,0,0,4,0,0,0,0,0,0,0,996,0,No
1,4,9,0,2,5,0,0,0,0,0,0,0,1231,1,No
0,0,0,0,0,4,0,0,0,0,0,0,0,996,0,No
1,3,5,0,2,5,0,0,0,0,0,0,0,996,1,No
0,0,0,0,0,4,0,0,0,0,0,0,0,996,0,No
1,2,7,0,2,8,0,0,0,0,0,0,0,996,1,No
0,0,0,0,0,4,0,0,0,0,0,0,0,1231,0,No
0,0,0,0,1,4,0,0,0,0,0,0,0,1231,0,No
2,13,17,0,1,1,0,0,0,0,0,0,0,202,0,No
1,3,5,0,2,5,0,0,0,0,0,0,0,1231,0,No
0,0,0,0,0,4,0,0,0,0,0,0,0,996,0,No
1,3,7,0,2,9,0,0,0,0,0,0,0,990,0,No
0,0,0,0,1,4,0,0,0,0,0,0,0,1231,0,No
1,2,2,0,2,3,0,0,0,0,0,0,0,532,0,No
0,0,0,0,0,4,0,0,0,0,0,0,0,1231,0,No
1,2,3,0,2,3,0,0,0,0,0,0,0,532,0,No
0,0,0,0,0,5,0,0,0,0,0,0,0,1231,0,No
3,13,23,0,2,7,0,0,0,0,0,0,0,902,0,No
1,3,24,0,2,7,0,0,0,0,0,0,0,895,0,No
0,0,0,0,0,4,0,0,0,0,0,0,0,1396,0,No
12,2,58,0,0,7,0,0,0,0,0,0,0,952,0,No
0,0,0,0,0,4,0,0,0,0,0,0,0,1396,0,No
0,0,0,0,0,5,0,0,0,0,0,0,0,1396,0,No
1,2,1,0,0,4,0,0,0,0,0,0,0,965,1,No
1,7,18,0,0,5,0,0,0,0,0,0,0,965,1,No
0,0,0,0,0,1,0,0,0,0,0,0,0,534,1,No
1,1,1,0,1,6,0,0,0,0,0,0,0,895,0,No
17,4,17,0,0,3,0,0,0,0,0,0,0,448,0,No
4,3,4,0,0,4,0,0,0,0,0,0,0,479,0,No
2,2,2,0,0,5,0,0,0,0,0,0,0,996,2,No
2,2,2,0,0,5,0,0,0,0,0,0,0,1396,0,No
16,1,42,0,1,5,0,0,0,0,0,0,0,1350,0,No
1,0,1,0,1,4,0,0,0,0,0,0,0,1435,0,No
3,3,3,0,0,4,0,0,0,0,0,0,0,787,0,No
4,2,4,0,1,2,0,0,0,0,0,0,0,535,0,No
0,0,0,0,0,6,0,0,0,0,0,0,0,1396,0,No
10,25,66,0,3,6,0,0,0,0,0,0,0,535,11,No
11,0,21,0,0,2,0,0,0,0,0,0,0,442,2,No
22,10,97,0,0,8,0,0,0,0,0,0,0,1308,40,No
4,5,10,0,0,5,0,0,0,0,0,0,0,513,0,No
2,7,11,2,3,4,1,1,0,0,1,9,15,491,0,No
2,7,12,0,1,4,0,0,0,0,0,0,0,535,1,No
20,28,67,2,9,9,1,1,0,0,1,9,15,1373,5,Yes
0,0,0,0,0,3,0,0,0,0,0,0,0,1396,0,No
4,8,7,0,2,5,0,0,0,0,0,0,0,988,1,No
1,0,1,0,2,3,0,0,0,0,0,0,0,1396,0,No
2,2,5,0,1,3,0,0,0,0,0,0,0,996,2,No
3,1,12,0,0,4,0,0,0,0,0,0,0,864,1,No
1,0,1,0,1,3,0,0,0,0,0,0,0,1396,0,No
0,0,0,0,0,3,0,0,0,0,0,0,0,1396,0,No
4,1,5,0,1,4,0,0,0,0,0,0,0,996,0,No
0,0,0,0,0,4,0,0,0,0,0,0,0,996,0,No
2,9,11,0,0,4,0,0,0,0,0,0,0,790,1,No
0,0,0,0,0,3,0,0,0,0,0,0,0,996,1,No
2,1,2,0,0,5,0,0,0,0,0,0,0,790,0,No
0,1,0,0,0,4,0,0,0,0,0,0,0,996,0,No
7,14,42,0,2,5,0,0,0,0,0,0,0,996,4,No
2,2,11,0,1,3,0,0,0,0,0,0,0,765,0,No
7,17,49,0,2,5,0,0,0,0,0,0,0,996,5,No
10,0,10,0,0,1,0,0,0,0,0,0,0,161,0,No
6,12,19,0,1,5,0,0,0,0,0,0,0,1435,6,No
0,1,0,0,1,5,0,0,0,0,0,0,0,1396,1,No
3,4,4,0,1,5,0,0,0,0,0,0,0,1214,0,No
10,11,25,0,3,8,0,0,0,0,0,0,0,1360,3,No
14,18,43,0,3,9,0,0,0,0,0,0,0,1375,5,No
1,3,5,0,2,2,0,0,0,0,0,0,0,156,4,No
6,9,21,0,3,7,0,0,0,0,0,0,0,1387,1,No
12,19,34,0,2,7,0,0,0,0,0,0,0,1157,4,No
7,5,18,0,2,7,0,0,0,0,0,0,0,892,4,No
16,13,32,0,4,7,0,0,0,0,0,0,0,952,1,No
17,18,53,0,2,8,0,0,0,0,0,0,0,790,7,No
10,25,37,0,3,8,0,0,0,0,0,0,0,1373,2,No
12,23,42,0,4,8,0,0,0,0,0,0,0,1364,2,No
6,9,21,0,2,7,0,0,0,0,0,0,0,1392,1,No
19,26,63,0,3,7,0,0,0,0,0,0,0,1269,6,No
1,0,1,0,0,4,0,0,0,0,0,0,0,1435,0,No
0,0,0,0,1,2,0,0,0,0,0,0,0,156,0,No
40,33,86,0,8,8,0,0,0,0,0,0,0,1402,1,Yes
9,9,21,0,1,7,0,0,0,0,0,0,0,882,0,No
6,9,21,0,2,8,0,0,0,0,0,0,0,1070,1,No
7,5,7,0,2,6,0,0,0,0,0,0,0,885,1,No
13,38,150,2,4,7,1,1,0,0,1,9,15,1363,9,Yes
2,2,2,0,0,4,0,0,0,0,0,0,0,1396,0,No
2,2,2,0,0,4,0,0,0,0,0,0,0,1360,0,No
4,9,31,0,0,6,0,0,0,0,0,0,0,1375,0,No
2,2,2,0,0,5,0,0,0,0,0,0,0,1396,0,No
4,6,7,2,2,4,1,1,0,0,1,9,15,1387,0,No
3,2,3,0,1,5,0,0,0,0,0,0,0,892,0,No
3,19,35,0,1,5,0,0,0,0,0,0,0,951,0,No
7,11,23,0,0,5,0,0,0,0,0,0,0,790,1,No
13,23,57,2,3,6,1,1,0,0,1,9,15,1373,0,No
6,25,54,0,2,7,0,0,0,0,0,0,0,1385,5,No
4,10,9,2,2,5,1,1,0,0,1,9,15,1387,0,No
7,26,50,2,1,8,1,1,0,0,1,9,15,1273,1,No
8,0,10,0,0,4,0,0,0,0,0,0,0,1402,0,No
14,32,57,0,7,10,0,0,0,0,0,0,0,1385,5,Yes
6,8,10,0,0,6,0,0,0,0,0,0,0,882,0,No
4,2,4,0,0,5,0,0,0,0,0,0,0,1070,0,No
3,0,18,0,1,3,0,0,0,0,0,0,0,447,1,No
9,11,36,0,3,6,0,0,0,0,0,0,0,447,1,No
5,0,5,0,0,4,0,0,0,0,0,0,0,1371,1,No
2,2,4,0,0,4,0,0,0,0,0,0,0,584,0,No
6,9,15,0,4,7,0,0,0,0,0,0,0,1211,2,No
1,1,3,0,0,1,0,0,0,0,0,0,0,373,0,No
1,7,9,0,2,4,0,0,0,0,0,0,0,1211,0,No
10,8,10,0,1,4,0,0,0,0,0,0,0,447,0,No
14,10,16,0,0,5,0,0,0,0,0,0,0,446,0,No
1,0,1,0,0,6,0,0,0,0,0,0,0,1435,0,No
32,0,32,0,0,3,0,0,0,0,0,0,0,447,0,No
2,4,2,0,0,5,0,0,0,0,0,0,0,1435,0,No
5,7,17,0,1,4,0,0,0,0,0,0,0,462,2,No
6,4,6,0,0,2,0,0,0,0,0,0,0,441,0,No
8,10,22,0,1,4,0,0,0,0,0,0,0,442,0,No
14,9,15,0,0,3,0,0,0,0,0,0,0,441,0,No
11,10,11,0,0,5,0,0,0,0,0,0,0,446,0,No
14,7,14,0,1,3,0,0,0,0,0,0,0,440,0,No
6,11,21,0,0,4,0,0,0,0,0,0,0,443,0,No
16,17,24,0,0,5,0,0,0,0,0,0,0,436,0,No
7,5,10,0,0,2,0,0,0,0,0,0,0,441,0,No
26,10,26,0,2,5,0,0,0,0,0,0,0,437,0,No
5,4,5,0,1,6,0,0,0,0,0,0,0,1435,0,No
3,4,7,0,1,2,0,0,0,0,0,0,0,434,1,No
6,2,6,0,0,7,0,0,0,0,0,0,0,871,3,Yes
6,2,6,0,0,7,0,0,0,0,0,0,0,871,6,Yes
1,1,1,0,1,6,0,0,0,0,0,0,0,1396,0,No
15,3,20,0,0,6,0,0,0,0,0,0,0,888,0,No
7,25,29,0,3,5,0,0,0,0,0,0,0,472,0,Yes
6,23,71,0,3,6,0,0,0,0,0,0,0,534,1,Yes
27,55,133,0,9,9,0,0,0,0,0,0,0,996,15,Yes
3,0,3,0,0,3,0,0,0,0,0,0,0,1435,0,No
33,48,142,0,2,5,0,0,0,0,0,0,0,1363,22,Yes
10,1,41,0,0,7,0,0,0,0,0,0,0,930,8,No
5,4,57,0,3,7,0,0,0,0,0,0,0,819,6,No
3,0,38,0,0,1,0,0,0,0,0,0,0,372,9,No
13,1,16,0,2,1,0,0,0,0,0,0,0,406,0,No
8,1,18,0,0,5,0,0,0,0,0,0,0,1134,1,No
4,0,8,0,0,2,0,0,0,0,0,0,0,470,4,No
0,0,0,0,0,5,0,0,0,0,0,0,0,1396,0,No
9,30,105,1,6,6,1,1,1,1,1,9,15,770,9,Yes
4,1,16,0,1,4,0,0,0,0,0,0,0,584,0,No
1,0,2,0,0,5,0,0,0,0,0,0,0,1396,1,No
4,10,20,0,0,4,0,0,0,0,0,0,0,996,0,No
1,0,5,0,1,1,0,0,0,0,0,0,0,379,0,No
5,1,14,0,1,2,0,0,0,0,0,0,0,421,0,No
6,1,6,0,1,3,0,0,0,0,0,0,0,421,0,No
7,0,8,0,0,4,0,0,0,0,0,0,0,1435,0,No
2,1,4,0,0,4,0,0,0,0,0,0,0,867,0,No
2,0,4,88,0,4,43,43,-2,0,1,9,15,1435,0,No
2,0,2,18,0,5,8,8,-2,0,1,9,15,1396,0,No
9,7,36,11,2,4,8,8,5,5,1,9,15,1093,10,No
14,0,18,0,1,5,0,0,0,0,0,0,0,819,0,No
2,0,6,0,0,4,0,0,0,0,0,0,0,819,1,No
3,2,4,0,1,5,0,0,0,0,0,0,0,1051,3,No
7,3,7,0,2,5,0,0,0,0,0,0,0,513,0,No
0,1,0,0,1,5,0,0,0,0,0,0,0,996,0,No
3,0,3,0,1,6,0,0,0,0,0,0,0,1396,0,No
9,1,9,0,1,4,0,0,0,0,0,0,0,885,0,No
1,6,3,0,2,4,0,0,0,0,0,0,0,451,1,No
0,0,0,0,0,3,0,0,0,0,0,0,0,1396,0,No
5,9,5,0,0,4,0,0,0,0,0,0,0,513,0,No
10,11,10,0,1,4,0,0,0,0,0,0,0,513,0,No
4,7,4,0,0,3,0,0,0,0,0,0,0,513,0,No
13,9,13,0,1,8,0,0,0,0,0,0,0,903,0,No
14,11,18,0,6,7,0,0,0,0,0,0,0,920,0,No
10,7,10,0,1,7,0,0,0,0,0,0,0,920,1,No
25,15,80,0,5,7,0,0,0,0,0,0,0,909,14,No
3,1,5,0,1,7,0,0,0,0,0,0,0,909,3,No
1,1,1,0,0,3,0,0,0,0,0,0,0,996,0,No
13,3,15,0,0,5,0,0,0,0,0,0,0,897,2,No
17,2,26,0,0,5,0,0,0,0,0,0,0,897,1,No
1,0,1,0,0,3,0,0,0,0,0,0,0,996,0,No
4,0,4,0,0,3,0,0,0,0,0,0,0,996,0,No
18,4,21,0,0,5,0,0,0,0,0,0,0,897,2,No
22,7,40,0,0,5,0,0,0,0,0,0,0,897,1,No
2,3,2,0,0,3,0,0,0,0,0,0,0,909,0,No
1,1,1,0,1,4,0,0,0,0,0,0,0,996,0,No
1,3,1,0,0,5,0,0,0,0,0,0,0,909,0,No
1,2,2,0,1,4,0,0,0,0,0,0,0,909,0,No
1,2,1,0,0,3,0,0,0,0,0,0,0,909,0,No
1,0,1,0,0,3,0,0,0,0,0,0,0,996,1,No
1,0,1,0,0,3,0,0,0,0,0,0,0,996,1,No
1,4,1,0,0,5,0,0,0,0,0,0,0,909,0,No
2,0,6,0,0,3,0,0,0,0,0,0,0,933,2,No
6,0,19,0,1,3,0,0,0,0,0,0,0,933,1,No
3,0,9,0,0,1,0,0,0,0,0,0,0,462,5,No
2,0,9,4,1,3,1,1,-2,0,1,1,1,933,2,No
5,0,17,0,0,3,0,0,0,0,0,0,0,933,1,No
1,0,10,0,0,1,0,0,0,0,0,0,0,572,5,No
4,0,5,0,0,2,0,0,0,0,0,0,0,525,1,No
1,0,2,0,0,4,0,0,0,0,0,0,0,1518,0,No
3,0,3,0,1,4,0,0,0,0,0,0,0,894,0,No
3,4,16,0,1,3,0,0,0,0,0,0,0,526,4,No
8,6,9,0,2,2,0,0,0,0,0,0,0,545,0,No
13,8,17,0,0,3,0,0,0,0,0,0,0,545,0,No
2,3,2,0,0,4,0,0,0,0,0,0,0,1518,0,No
5,6,15,0,1,3,0,0,0,0,0,0,0,545,0,No
5,3,5,0,0,3,0,0,0,0,0,0,0,540,0,No
9,8,24,0,1,4,0,0,0,0,0,0,0,541,0,No
12,6,13,0,2,3,0,0,0,0,0,0,0,544,0,No
10,9,12,0,1,3,0,0,0,0,0,0,0,544,0,No
13,5,13,0,1,2,0,0,0,0,0,0,0,546,0,No
6,8,13,0,1,3,0,0,0,0,0,0,0,540,0,No
1,0,1,0,0,4,0,0,0,0,0,0,0,1518,0,No
4,2,8,0,1,5,0,0,0,0,0,0,0,1518,0,No
15,15,35,0,2,4,0,0,0,0,0,0,0,541,1,No
6,3,9,0,0,3,0,0,0,0,0,0,0,539,0,No
25,8,25,0,2,4,0,0,0,0,0,0,0,546,0,No
5,3,5,0,1,1,0,0,0,0,0,0,0,502,0,No
2,3,2,0,1,6,0,0,0,0,0,0,0,1518,0,No
3,0,3,0,0,4,0,0,0,0,0,0,0,1518,0,No
0,0,0,0,0,6,0,0,0,0,0,0,0,1079,1,No
0,0,0,0,0,5,0,0,0,0,0,0,0,1079,0,No
0,1,0,0,0,4,0,0,0,0,0,0,0,1079,0,No
0,0,0,0,0,4,0,0,0,0,0,0,0,1079,0,No
35,1,42,0,0,5,0,0,0,0,0,0,0,1434,0,No
11,1,12,0,0,4,0,0,0,0,0,0,0,1434,0,No
11,0,12,0,0,5,0,0,0,0,0,0,0,1518,2,No
2,1,2,0,0,4,0,0,0,0,0,0,0,1518,0,No
25,0,38,0,0,4,0,0,0,0,0,0,0,1454,0,No
15,1,26,0,0,5,0,0,0,0,0,0,0,1434,2,No
2,1,2,0,0,5,0,0,0,0,0,0,0,1079,0,No
1,0,1,0,0,4,0,0,0,0,0,0,0,873,0,No
10,3,10,0,0,5,0,0,0,0,0,0,0,873,0,No
12,1,14,0,0,3,0,0,0,0,0,0,0,848,0,No
10,3,10,0,0,5,0,0,0,0,0,0,0,873,0,No
0,0,0,0,0,4,0,0,0,0,0,0,0,1479,1,No
7,1,11,0,0,4,0,0,0,0,0,0,0,1365,0,No
3,1,3,0,0,4,0,0,0,0,0,0,0,1475,0,No
5,1,6,0,0,4,0,0,0,0,0,0,0,1518,1,No
29,1,51,0,0,5,0,0,0,0,0,0,0,1365,1,No
3,1,3,0,0,5,0,0,0,0,0,0,0,1518,0,No
1,0,1,0,0,4,0,0,0,0,0,0,0,1479,0,No
8,3,8,0,1,3,0,0,0,0,0,0,0,545,0,No
13,7,13,0,1,3,0,0,0,0,0,0,0,545,0,No
2,1,2,0,0,4,0,0,0,0,0,0,0,1518,0,No
0,0,0,0,0,5,0,0,0,0,0,0,0,1479,0,No
5,3,5,0,1,3,0,0,0,0,0,0,0,545,1,No
5,1,5,0,0,4,0,0,0,0,0,0,0,540,0,No
7,3,7,0,1,3,0,0,0,0,0,0,0,541,0,No
12,3,12,0,1,3,0,0,0,0,0,0,0,544,0,No
2,0,2,0,0,5,0,0,0,0,0,0,0,1518,0,No
10,6,10,0,0,3,0,0,0,0,0,0,0,544,0,No
13,3,13,0,0,3,0,0,0,0,0,0,0,546,0,No
5,3,5,0,0,3,0,0,0,0,0,0,0,540,0,No
14,8,14,0,0,4,0,0,0,0,0,0,0,541,0,No
6,1,6,0,0,3,0,0,0,0,0,0,0,540,1,No
25,6,25,0,1,5,0,0,0,0,0,0,0,546,0,No
5,2,5,0,1,5,0,0,0,0,0,0,0,1518,0,No
2,2,2,0,1,4,0,0,0,0,0,0,0,545,0,No
20,0,29,2,0,7,1,1,0,0,1,1,1,1485,1,No
10,1,14,0,0,4,0,0,0,0,0,0,0,1356,0,No
2,1,2,0,0,4,0,0,0,0,0,0,0,1518,0,No
2,2,2,0,0,4,0,0,0,0,0,0,0,1518,0,No
8,1,13,0,0,5,0,0,0,0,0,0,0,1518,2,No
6,1,8,0,0,2,0,0,0,0,0,0,0,477,0,No
9,1,16,0,0,2,0,0,0,0,0,0,0,477,1,No
4,1,4,0,0,4,0,0,0,0,0,0,0,1518,0,No
14,2,14,0,0,4,0,0,0,0,0,0,0,1456,0,No
3,1,3,0,0,4,0,0,0,0,0,0,0,1518,2,No
23,3,31,0,0,7,0,0,0,0,0,0,0,1458,2,No
5,1,7,0,1,5,0,0,0,0,0,0,0,894,0,No
3,1,3,0,0,5,0,0,0,0,0,0,0,1518,0,No
2,0,2,0,0,4,0,0,0,0,0,0,0,1475,0,No
3,1,3,0,0,1,0,0,0,0,0,0,0,546,0,No
8,2,10,0,2,2,0,0,0,0,0,0,0,239,0,No
3,1,3,0,0,4,0,0,0,0,0,0,0,1518,0,No
4,2,4,0,0,4,0,0,0,0,0,0,0,1518,0,No
3,1,3,0,0,4,0,0,0,0,0,0,0,1518,0,No
16,3,16,0,0,5,0,0,0,0,0,0,0,1463,0,No
11,2,27,0,1,4,0,0,0,0,0,0,0,598,2,No
12,0,12,0,0,5,0,0,0,0,0,0,0,1518,2,No
24,4,27,0,0,6,0,0,0,0,0,0,0,975,0,No
16,1,18,0,0,5,0,0,0,0,0,0,0,968,1,No
2,2,2,0,0,4,0,0,0,0,0,0,0,1518,0,No
8,2,8,0,0,4,0,0,0,0,0,0,0,1518,0,No
3,1,3,0,0,1,0,0,0,0,0,0,0,546,0,No
6,1,9,0,0,2,0,0,0,0,0,0,0,525,1,No
10,2,10,0,0,5,0,0,0,0,0,0,0,870,0,No
18,3,18,0,0,4,0,0,0,0,0,0,0,1356,0,No
2,0,2,0,0,4,0,0,0,0,0,0,0,1079,0,No
24,4,32,0,0,5,0,0,0,0,0,0,0,873,0,No
42,4,42,0,1,4,0,0,0,0,0,0,0,1454,0,No
30,0,37,0,1,5,0,0,0,0,0,0,0,1447,1,No
12,0,16,0,0,5,0,0,0,0,0,0,0,1518,0,No
18,1,19,0,0,6,0,0,0,0,0,0,0,1518,0,No
3,1,3,0,0,1,0,0,0,0,0,0,0,546,0,No
2,2,2,0,0,4,0,0,0,0,0,0,0,1518,0,No
18,0,18,0,0,4,0,0,0,0,0,0,0,1079,0,No
2,0,2,0,0,4,0,0,0,0,0,0,0,1356,0,No
12,1,16,0,0,6,0,0,0,0,0,0,0,1356,0,No
1,0,1,0,0,5,0,0,0,0,0,0,0,1518,0,No
10,3,13,0,0,5,0,0,0,0,0,0,0,965,1,No
25,0,31,0,0,5,0,0,0,0,0,0,0,1485,1,No
3,1,3,0,0,4,0,0,0,0,0,0,0,1518,0,No
2,0,2,0,0,5,0,0,0,0,0,0,0,1518,0,No
4,1,4,0,0,4,0,0,0,0,0,0,0,1079,0,No
20,2,21,0,0,4,0,0,0,0,0,0,0,981,0,No
20,1,27,0,0,6,0,0,0,0,0,0,0,981,2,No
0,1,0,0,0,4,0,0,0,0,0,0,0,1479,1,No
22,1,26,0,0,5,0,0,0,0,0,0,0,1479,0,No
1,0,1,0,0,5,0,0,0,0,0,0,0,1479,1,No
2,0,4,0,0,4,0,0,0,0,0,0,0,1518,3,No
1,0,1,0,2,5,0,0,0,0,0,0,0,1518,1,No
7,4,10,0,2,3,0,0,0,0,0,0,0,832,0,No
2,0,2,1,0,6,1,1,1,1,2,2,2,1479,2,No
1,0,1,0,0,6,0,0,0,0,0,0,0,1479,1,No
16,1,18,29,0,5,21,11,13,10,7,13,18,1518,1,No
6,1,6,14,0,4,5,3,-4,0,7,13,18,1518,1,No
1,0,1,0,0,4,0,0,0,0,0,0,0,1479,0,No
1,0,1,0,0,5,0,0,0,0,0,0,0,1479,1,No
2,0,2,0,2,3,0,0,0,0,0,0,0,805,1,No
5,0,17,0,2,7,0,0,0,0,0,0,0,1479,9,No
1,0,1,0,0,5,0,0,0,0,0,0,0,1479,1,No
0,0,0,0,1,2,0,0,0,0,0,0,0,499,0,No
48,1,52,0,0,6,0,0,0,0,0,0,0,1048,0,No
2,0,2,0,0,5,0,0,0,0,0,0,0,1479,1,No
0,0,0,0,0,4,0,0,0,0,0,0,0,1479,0,No
2,0,3,0,0,5,0,0,0,0,0,0,0,1479,1,No
0,0,0,0,0,4,0,0,0,0,0,0,0,1479,0,No
1,0,1,0,0,5,0,0,0,0,0,0,0,1479,1,No
1,0,1,0,0,5,0,0,0,0,0,0,0,1479,1,No
2,4,2,0,1,4,0,0,0,0,0,0,0,1079,1,No
10,2,11,0,0,8,0,0,0,0,0,0,0,1479,0,No
3,0,6,0,4,4,0,0,0,0,0,0,0,1463,1,No
2,0,9,0,0,4,0,0,0,0,0,0,0,881,0,No
1,0,1,0,0,4,0,0,0,0,0,0,0,1479,0,No
2,0,5,0,0,5,0,0,0,0,0,0,0,1079,3,No
0,0,0,0,0,4,0,0,0,0,0,0,0,1479,0,No
1,0,1,0,0,5,0,0,0,0,0,0,0,1079,1,No
0,0,0,0,0,4,0,0,0,0,0,0,0,1079,0,No
0,0,0,0,0,4,0,0,0,0,0,0,0,1479,0,No
10,11,54,0,1,6,0,0,0,0,0,0,0,961,0,No
17,10,34,0,2,4,0,0,0,0,0,0,0,530,0,No
2,4,18,0,2,2,0,0,0,0,0,0,0,239,2,No
7,1,14,0,2,6,0,0,0,0,0,0,0,1463,0,No
1,1,11,0,2,4,0,0,0,0,0,0,0,1463,2,No
8,1,8,0,0,5,0,0,0,0,0,0,0,1463,0,No
8,14,18,0,0,6,0,0,0,0,0,0,0,1479,0,No
1,1,7,0,1,3,0,0,0,0,0,0,0,1342,1,No
13,31,14,0,2,7,0,0,0,0,0,0,0,1479,0,No
4,4,10,0,1,6,0,0,0,0,0,0,0,971,2,No
3,0,3,0,0,2,0,0,0,0,0,0,0,680,0,No
0,0,0,0,0,2,0,0,0,0,0,0,0,411,0,No
0,0,0,0,0,4,0,0,0,0,0,0,0,1479,0,No
3,1,4,0,0,5,0,0,0,0,0,0,0,1079,2,No
6,1,10,0,0,4,0,0,0,0,0,0,0,860,0,No
3,0,3,0,0,2,0,0,0,0,0,0,0,517,1,No
2,0,2,0,0,5,0,0,0,0,0,0,0,1079,0,No
10,0,21,0,2,6,0,0,0,0,0,0,0,1233,3,No
7,2,12,0,0,4,0,0,0,0,0,0,0,1238,1,No
1,1,4,0,0,3,0,0,0,0,0,0,0,1518,1,No
1,6,3,0,1,4,0,0,0,0,0,0,0,1148,0,No
13,2,13,0,0,5,0,0,0,0,0,0,0,1370,2,No
2,0,3,0,0,3,0,0,0,0,0,0,0,1518,0,No
7,0,12,0,0,5,0,0,0,0,0,0,0,1078,1,No
2,3,12,0,2,6,0,0,0,0,0,0,0,1196,2,No
2,0,7,0,1,5,0,0,0,0,0,0,0,1198,0,No
7,0,7,0,0,3,0,0,0,0,0,0,0,1518,0,No
9,6,34,0,0,4,0,0,0,0,0,0,0,861,2,No
2,0,8,0,0,6,0,0,0,0,0,0,0,1307,0,No
8,3,28,0,0,4,0,0,0,0,0,0,0,860,2,No
2,0,4,0,0,1,0,0,0,0,0,0,0,517,0,No
4,8,4,0,0,4,0,0,0,0,0,0,0,1479,0,No
3,7,8,0,1,6,0,0,0,0,0,0,0,1078,1,No
2,2,2,0,0,5,0,0,0,0,0,0,0,1148,0,No
10,12,29,0,3,5,0,0,0,0,0,0,0,978,2,No
1,1,1,0,1,5,0,0,0,0,0,0,0,1479,0,No
9,4,16,0,2,7,0,0,0,0,0,0,0,1479,2,No
6,6,7,0,2,3,0,0,0,0,0,0,0,477,1,No
4,2,4,0,0,3,0,0,0,0,0,0,0,477,0,No
36,20,54,0,4,7,0,0,0,0,0,0,0,1479,16,No
4,4,7,0,1,6,0,0,0,0,0,0,0,1373,4,No
3,5,13,0,0,2,0,0,0,0,0,0,0,483,0,No
13,16,44,215,2,7,110,107,5,12,7,13,18,1454,3,Yes
4,7,12,0,2,6,0,0,0,0,0,0,0,1454,1,No
11,3,16,0,3,6,0,0,0,0,0,0,0,1427,1,No
2,8,5,0,5,5,0,0,0,0,0,0,0,873,0,No
0,0,0,0,1,3,0,0,0,0,0,0,0,1479,0,No
0,0,0,0,0,3,0,0,0,0,0,0,0,1079,0,No
0,0,0,0,0,1,0,0,0,0,0,0,0,348,0,No
0,0,0,0,0,3,0,0,0,0,0,0,0,1479,0,No
0,1,0,0,0,2,0,0,0,0,0,0,0,520,2,No
11,10,15,0,5,7,0,0,0,0,0,0,0,1478,9,No
0,2,0,0,0,5,0,0,0,0,0,0,0,1477,1,No
4,5,4,1,2,6,1,1,1,1,1,1,1,1427,2,No
11,14,22,0,7,7,0,0,0,0,0,0,0,968,7,No
0,3,0,0,1,6,0,0,0,0,0,0,0,968,0,No
23,19,49,0,4,7,0,0,0,0,0,0,0,978,7,No
0,2,0,0,1,4,0,0,0,0,0,0,0,1148,0,No
3,3,3,0,0,4,0,0,0,0,0,0,0,860,0,No
39,19,75,0,4,7,0,0,0,0,0,0,0,860,3,No
11,17,70,0,3,6,0,0,0,0,0,0,0,848,3,No
19,17,43,0,8,8,0,0,0,0,0,0,0,1479,5,No
5,8,18,0,8,7,0,0,0,0,0,0,0,1448,3,No
36,13,47,22,6,7,22,22,22,22,1,8,18,1479,16,No
13,10,36,0,1,5,0,0,0,0,0,0,0,861,3,No
5,6,9,0,5,7,0,0,0,0,0,0,0,1427,1,No
4,5,6,0,0,4,0,0,0,0,0,0,0,611,1,No
1,2,1,0,0,5,0,0,0,0,0,0,0,1148,0,No
8,9,14,0,4,7,0,0,0,0,0,0,0,1479,5,No
1,2,1,0,0,6,0,0,0,0,0,0,0,1078,0,No
19,14,35,0,4,7,0,0,0,0,0,0,0,1472,2,No
10,11,41,0,2,8,0,0,0,0,0,0,0,1454,6,No
5,5,8,0,1,6,0,0,0,0,0,0,0,887,2,No
1,5,2,0,1,6,0,0,0,0,0,0,0,1078,0,No
11,14,19,0,5,7,0,0,0,0,0,0,0,1343,2,No
11,12,16,0,3,7,0,0,0,0,0,0,0,1479,0,No
24,13,37,0,3,7,0,0,0,0,0,0,0,978,8,No
10,8,18,0,5,7,0,0,0,0,0,0,0,1427,4,No
3,5,5,0,0,4,0,0,0,0,0,0,0,611,1,No
2,5,11,0,1,5,0,0,0,0,0,0,0,873,3,No
2,2,2,0,0,5,0,0,0,0,0,0,0,1148,0,No
7,10,11,0,5,7,0,0,0,0,0,0,0,1479,4,No
2,1,2,0,0,5,0,0,0,0,0,0,0,1148,0,No
4,7,12,0,1,6,0,0,0,0,0,0,0,1148,1,No
1,2,1,0,0,6,0,0,0,0,0,0,0,1479,0,No
12,15,51,0,1,3,0,0,0,0,0,0,0,559,0,No
17,9,23,0,6,7,0,0,0,0,0,0,0,971,1,No
0,3,0,6,1,3,5,5,4,4,1,1,5,411,0,No
0,3,0,0,0,5,0,0,0,0,0,0,0,873,0,No
13,8,16,0,2,3,0,0,0,0,0,0,0,477,3,No
8,19,38,0,1,7,0,0,0,0,0,0,0,1063,2,No
9,8,13,0,2,6,0,0,0,0,0,0,0,1146,0,No
8,4,18,0,2,2,0,0,0,0,0,0,0,239,3,No
2,0,2,0,0,4,0,0,0,0,0,0,0,1479,0,No
21,11,46,0,4,3,0,0,0,0,0,0,0,239,1,No
11,13,31,34,3,6,18,18,2,2,1,1,1,1063,0,No
11,10,23,134,3,7,68,68,2,2,1,1,5,1479,6,No
15,15,23,0,3,7,0,0,0,0,0,0,0,1029,3,No
14,15,34,0,1,7,0,0,0,0,0,0,0,1035,1,No
12,12,24,126,3,7,64,64,2,2,1,1,5,1479,6,No
6,15,27,0,2,7,0,0,0,0,0,0,0,873,2,No
6,11,9,24,0,7,3,3,-18,0,1,8,18,873,2,No
20,19,93,0,9,8,0,0,0,0,0,0,0,873,3,No
5,5,15,0,0,7,0,0,0,0,0,0,0,987,1,No
6,13,18,0,2,7,0,0,0,0,0,0,0,1063,2,No
19,10,39,50,3,3,35,35,20,20,3,4,5,611,3,No
6,7,6,9,3,7,3,3,-3,0,3,4,5,964,3,No
5,3,5,0,1,4,0,0,0,0,0,0,0,559,1,No
11,12,15,0,4,4,0,0,0,0,0,0,0,559,1,No
6,7,11,0,0,7,0,0,0,0,0,0,0,987,1,No
7,7,7,0,0,5,0,0,0,0,0,0,0,964,5,No
9,15,10,0,2,6,0,0,0,0,0,0,0,964,4,No
13,12,27,141,3,7,71,71,1,1,1,1,5,1479,6,No
14,3,28,0,0,3,0,0,0,0,0,0,0,559,4,No
3,6,4,0,2,5,0,0,0,0,0,0,0,611,0,No
10,1,14,0,2,2,0,0,0,0,0,0,0,239,0,No
10,15,24,0,1,6,0,0,0,0,0,0,0,873,5,No
17,14,31,142,3,7,72,72,2,2,1,1,5,1479,6,No
1,5,2,0,1,6,0,0,0,0,0,0,0,975,0,No
6,5,8,0,1,6,0,0,0,0,0,0,0,1479,1,No
14,21,32,0,7,4,0,0,0,0,0,0,0,559,2,No
10,11,24,0,2,6,0,0,0,0,0,0,0,1146,0,No
7,6,7,0,1,6,0,0,0,0,0,0,0,1518,0,No
3,2,3,0,2,6,0,0,0,0,0,0,0,978,0,No
2,2,2,0,1,5,0,0,0,0,0,0,0,1275,0,No
1,1,1,0,0,5,0,0,0,0,0,0,0,1518,0,No
6,2,6,0,0,6,0,0,0,0,0,0,0,1427,0,No
14,12,28,3,3,6,2,2,1,1,4,7,8,1454,1,No
2,0,2,0,0,4,0,0,0,0,0,0,0,1479,0,No
0,0,0,0,0,5,0,0,0,0,0,0,0,1479,1,No
8,7,11,0,1,6,0,0,0,0,0,0,0,1427,0,No
6,5,6,0,1,6,0,0,0,0,0,0,0,968,0,No
8,7,18,0,3,7,0,0,0,0,0,0,0,1035,2,No
11,5,12,0,1,6,0,0,0,0,0,0,0,860,0,No
7,7,10,0,0,6,0,0,0,0,0,0,0,1448,0,No
11,10,11,0,0,7,0,0,0,0,0,0,0,1448,0,Yes
19,11,32,0,1,7,0,0,0,0,0,0,0,1518,0,No
17,13,23,0,0,8,0,0,0,0,0,0,0,1343,0,No
5,5,5,0,0,8,0,0,0,0,0,0,0,961,0,No
14,13,16,0,1,7,0,0,0,0,0,0,0,1469,0,Yes
2,4,2,0,0,6,0,0,0,0,0,0,0,1275,0,No
4,0,4,0,0,1,0,0,0,0,0,0,0,860,0,No
2,1,3,0,1,1,0,0,0,0,0,0,0,499,0,No
2,1,3,0,1,3,0,0,0,0,0,0,0,1198,0,No
2,0,2,0,1,3,0,0,0,0,0,0,0,1198,0,No
4,1,4,0,1,5,0,0,0,0,0,0,0,968,1,No
3,1,4,0,0,1,0,0,0,0,0,0,0,477,0,No
1,2,10,0,1,4,0,0,0,0,0,0,0,965,0,No
0,0,0,0,0,4,0,0,0,0,0,0,0,1479,0,No
0,0,0,0,0,4,0,0,0,0,0,0,0,1479,0,No
3,0,3,0,0,5,0,0,0,0,0,0,0,968,0,No
1,0,2,0,1,4,0,0,0,0,0,0,0,1479,0,No
1,0,2,0,1,5,0,0,0,0,0,0,0,968,0,No
1,1,2,0,0,4,0,0,0,0,0,0,0,968,0,No
1,2,3,0,0,4,0,0,0,0,0,0,0,968,0,No
1,0,1,0,0,4,0,0,0,0,0,0,0,1479,0,No
3,0,3,1,1,5,1,1,1,1,1,8,18,1518,3,No
23,3,55,37,2,4,26,26,15,15,1,8,18,887,0,No
5,1,16,0,1,7,0,0,0,0,0,0,0,1427,1,Yes
2,0,2,0,0,3,0,0,0,0,0,0,0,1237,0,No
5,1,5,0,2,7,0,0,0,0,0,0,0,1427,1,Yes
1,1,1,0,0,4,0,0,0,0,0,0,0,1427,0,Yes
3,1,3,0,1,5,0,0,0,0,0,0,0,1035,0,No
2,1,3,0,0,4,0,0,0,0,0,0,0,1427,0,Yes
5,1,8,0,2,7,0,0,0,0,0,0,0,1427,2,Yes
1,0,1,0,0,4,0,0,0,0,0,0,0,1479,0,No
6,1,32,0,0,6,0,0,0,0,0,0,0,1035,1,Yes
4,1,5,0,0,7,0,0,0,0,0,0,0,1035,3,Yes
9,1,23,0,1,8,0,0,0,0,0,0,0,1035,6,Yes
19,0,35,0,2,6,0,0,0,0,0,0,0,1035,1,Yes
0,0,0,0,0,3,0,0,0,0,0,0,0,1479,0,No
8,1,14,0,0,6,0,0,0,0,0,0,0,1035,0,No
1,0,1,0,2,1,0,0,0,0,0,0,0,509,0,No
9,0,30,0,0,3,0,0,0,0,0,0,0,848,1,No
16,1,20,0,0,3,0,0,0,0,0,0,0,562,4,No
1,0,1,0,0,5,0,0,0,0,0,0,0,1079,0,No
6,4,7,0,0,4,0,0,0,0,0,0,0,964,0,No
1,1,1,0,0,4,0,0,0,0,0,0,0,1079,0,No
2,0,2,0,0,3,0,0,0,0,0,0,0,470,0,No
1,3,12,0,1,3,0,0,0,0,0,0,0,840,2,No
0,1,0,0,1,2,0,0,0,0,0,0,0,840,1,No
14,38,140,31,7,9,25,23,19,19,5,21,42,852,8,No
10,9,84,45,1,5,21,20,-3,0,2,18,38,617,1,No
2,0,14,0,0,3,0,0,0,0,0,0,0,1385,8,No
7,11,13,2,2,7,1,1,0,0,1,16,36,1394,3,No
10,23,37,2,0,1,1,1,0,0,1,16,36,456,10,No
2,7,20,0,2,5,0,0,0,0,0,0,0,826,3,No
15,15,38,2,3,8,1,1,0,0,1,16,36,1071,6,No
1,4,9,0,0,5,0,0,0,0,0,0,0,881,0,No
2,2,3,0,1,6,0,0,0,0,0,0,0,1134,0,No
2,1,2,0,1,5,0,0,0,0,0,0,0,1079,0,No
5,3,11,0,1,3,0,0,0,0,0,0,0,534,1,No
5,9,33,2,2,6,1,1,0,0,1,16,36,968,2,Yes
9,28,43,0,2,8,0,0,0,0,0,0,0,968,3,No
13,3,18,0,0,6,0,0,0,0,0,0,0,1472,0,No
2,0,2,0,0,3,0,0,0,0,0,0,0,1479,0,No
17,4,48,4,2,5,2,2,0,0,1,16,36,1507,3,No
25,0,42,0,1,4,0,0,0,0,0,0,0,1472,0,No
6,0,15,4,2,5,2,2,0,0,1,16,36,1518,1,No
6,1,6,0,1,6,0,0,0,0,0,0,0,1492,0,No
9,2,9,0,1,4,0,0,0,0,0,0,0,1475,1,No
8,0,13,0,0,5,0,0,0,0,0,0,0,873,0,No
12,1,19,0,0,2,0,0,0,0,0,0,0,598,2,No
17,2,24,0,0,5,0,0,0,0,0,0,0,1463,0,No
21,5,28,0,2,5,0,0,0,0,0,0,0,1505,3,No
8,0,10,0,0,5,0,0,0,0,0,0,0,1153,0,No
8,2,8,0,1,5,0,0,0,0,0,0,0,1475,1,No
0,1,0,0,0,5,0,0,0,0,0,0,0,1472,0,No
23,4,30,0,0,5,0,0,0,0,0,0,0,1483,2,No
4,1,4,0,0,4,0,0,0,0,0,0,0,1507,0,No
44,7,49,2,0,6,1,1,0,0,1,16,36,1463,1,No
23,5,31,0,1,5,0,0,0,0,0,0,0,975,0,No
16,1,17,0,0,5,0,0,0,0,0,0,0,968,0,No
0,1,0,0,0,4,0,0,0,0,0,0,0,1472,0,No
6,4,6,0,2,5,0,0,0,0,0,0,0,1048,0,No
18,5,18,0,0,5,0,0,0,0,0,0,0,1356,0,No
13,2,27,0,0,4,0,0,0,0,0,0,0,873,1,No
6,1,8,2,0,4,1,1,0,0,1,16,36,873,0,No
5,2,7,0,0,4,0,0,0,0,0,0,0,873,0,No
8,1,8,0,0,5,0,0,0,0,0,0,0,1079,0,No
0,1,0,0,0,5,0,0,0,0,0,0,0,1472,0,No
19,5,21,5,1,7,3,3,1,1,3,4,5,1079,0,No
4,1,4,0,1,3,0,0,0,0,0,0,0,1518,0,No
6,2,6,0,0,4,0,0,0,0,0,0,0,1507,0,No
5,0,10,0,0,4,0,0,0,0,0,0,0,1356,0,No
4,0,4,0,0,3,0,0,0,0,0,0,0,1356,0,No
8,4,11,0,0,4,0,0,0,0,0,0,0,965,0,No
11,4,19,0,0,5,0,0,0,0,0,0,0,1472,0,Yes
5,3,7,0,0,5,0,0,0,0,0,0,0,1314,0,No
3,2,4,0,0,5,0,0,0,0,0,0,0,1518,0,No
4,3,6,0,0,5,0,0,0,0,0,0,0,1472,0,No
0,1,0,0,0,4,0,0,0,0,0,0,0,1472,0,No
0,1,0,0,0,4,0,0,0,0,0,0,0,1472,0,No
5,3,7,0,0,6,0,0,0,0,0,0,0,1472,0,No
0,1,0,0,0,4,0,0,0,0,0,0,0,1472,0,No
24,7,36,0,0,6,0,0,0,0,0,0,0,1442,0,No
0,0,0,0,0,3,0,0,0,0,0,0,0,1479,0,No
11,4,19,0,0,5,0,0,0,0,0,0,0,1472,0,Yes
5,3,7,0,0,5,0,0,0,0,0,0,0,1314,0,No
3,2,4,0,0,5,0,0,0,0,0,0,0,1518,0,No
4,3,6,0,0,5,0,0,0,0,0,0,0,1472,0,No
0,1,0,0,0,4,0,0,0,0,0,0,0,1472,0,No
8,3,19,0,0,2,0,0,0,0,0,0,0,598,1,No
3,2,5,0,0,5,0,0,0,0,0,0,0,1518,0,No
0,1,0,0,0,4,0,0,0,0,0,0,0,1472,0,No
5,3,8,0,0,6,0,0,0,0,0,0,0,1472,0,No
0,1,0,0,0,4,0,0,0,0,0,0,0,1472,0,No
45,13,84,0,0,5,0,0,0,0,0,0,0,1472,0,Yes
55,11,95,9,3,9,7,7,5,7,3,3,3,1472,1,No
11,4,19,0,0,5,0,0,0,0,0,0,0,1472,0,Yes
5,3,7,0,0,5,0,0,0,0,0,0,0,1314,0,No
3,2,4,0,0,5,0,0,0,0,0,0,0,1518,0,No
4,3,6,0,0,5,0,0,0,0,0,0,0,1472,0,No
0,1,0,0,1,4,0,0,0,0,0,0,0,1472,0,No
10,3,23,0,0,2,0,0,0,0,0,0,0,598,1,No
3,2,5,0,0,5,0,0,0,0,0,0,0,1518,0,No
0,1,0,0,1,4,0,0,0,0,0,0,0,1472,0,No
5,3,8,0,0,6,0,0,0,0,0,0,0,1472,0,No
0,1,0,0,1,4,0,0,0,0,0,0,0,1472,0,No
5,2,5,0,0,4,0,0,0,0,0,0,0,1518,0,No
5,2,5,0,0,4,0,0,0,0,0,0,0,1518,0,No
4,5,4,0,0,6,0,0,0,0,0,0,0,1518,0,No
4,3,4,0,0,6,0,0,0,0,0,0,0,1518,0,No
5,2,5,0,0,4,0,0,0,0,0,0,0,1518,0,No
4,2,4,0,0,4,0,0,0,0,0,0,0,1518,0,No
2,1,2,0,0,5,0,0,0,0,0,0,0,1479,0,No
4,1,4,0,0,3,0,0,0,0,0,0,0,1479,0,No
5,2,5,0,0,4,0,0,0,0,0,0,0,1518,0,No
5,4,5,0,0,4,0,0,0,0,0,0,0,1518,0,No
6,3,6,0,0,4,0,0,0,0,0,0,0,1518,0,No
5,3,5,0,0,4,0,0,0,0,0,0,0,1518,0,No
5,4,5,0,0,4,0,0,0,0,0,0,0,1518,0,No
1,0,1,0,0,4,0,0,0,0,0,0,0,1479,0,No
0,0,0,0,0,5,0,0,0,0,0,0,0,1479,0,No
4,2,4,0,0,4,0,0,0,0,0,0,0,1079,0,No
8,5,8,0,1,4,0,0,0,0,0,0,0,1479,0,No
7,2,7,0,0,4,0,0,0,0,0,0,0,1518,0,No
7,3,7,0,0,4,0,0,0,0,0,0,0,1518,0,No
8,6,8,0,0,4,0,0,0,0,0,0,0,1518,0,No
19,10,19,0,0,6,0,0,0,0,0,0,0,1518,0,No
5,4,5,0,0,4,0,0,0,0,0,0,0,1518,0,No
10,3,10,0,0,4,0,0,0,0,0,0,0,1518,0,No
8,3,8,0,0,4,0,0,0,0,0,0,0,1518,0,No
13,5,13,0,0,6,0,0,0,0,0,0,0,1518,0,No
4,2,4,0,0,4,0,0,0,0,0,0,0,1079,0,No
5,2,5,0,0,4,0,0,0,0,0,0,0,1518,0,No
5,4,5,0,0,4,0,0,0,0,0,0,0,1518,0,No
8,10,53,0,0,9,0,0,0,0,0,0,0,1262,2,No
2,0,6,0,2,7,0,0,0,0,0,0,0,1475,2,No
8,2,12,0,0,4,0,0,0,0,0,0,0,1518,0,No
5,2,7,0,0,4,0,0,0,0,0,0,0,1507,0,No
5,2,7,0,0,4,0,0,0,0,0,0,0,1507,0,Yes
16,16,112,0,3,7,0,0,0,0,0,0,0,1518,11,No
5,3,9,0,0,4,0,0,0,0,0,0,0,1507,1,No
4,6,9,0,0,5,0,0,0,0,0,0,0,1507,0,No
2,2,5,0,1,7,0,0,0,0,0,0,0,1475,2,No
5,2,7,0,0,4,0,0,0,0,0,0,0,1507,0,No
5,7,8,0,0,4,0,0,0,0,0,0,0,1507,0,No
6,5,9,0,0,4,0,0,0,0,0,0,0,1507,0,No
5,4,8,0,0,4,0,0,0,0,0,0,0,881,0,No
5,6,7,0,0,5,0,0,0,0,0,0,0,1442,0,No
4,3,4,0,0,4,0,0,0,0,0,0,0,975,0,No
8,6,14,0,0,4,0,0,0,0,0,0,0,1048,0,No
7,3,10,0,0,4,0,0,0,0,0,0,0,873,0,No
8,4,12,0,0,4,0,0,0,0,0,0,0,873,0,No
9,16,32,0,0,7,0,0,0,0,0,0,0,1463,0,No
25,17,60,0,0,7,0,0,0,0,0,0,0,1507,0,No
5,7,8,0,0,4,0,0,0,0,0,0,0,1507,0,No
11,6,21,0,0,5,0,0,0,0,0,0,0,1507,0,No
9,7,14,0,0,4,0,0,0,0,0,0,0,1507,0,No
15,11,32,0,0,9,0,0,0,0,0,0,0,1262,0,No
4,3,4,0,0,4,0,0,0,0,0,0,0,975,0,No
5,2,7,0,0,4,0,0,0,0,0,0,0,1507,0,No
5,7,8,0,0,4,0,0,0,0,0,0,0,1507,0,No
2,0,67,0,0,2,0,0,0,0,0,0,0,719,7,No
2,2,2,0,0,4,0,0,0,0,0,0,0,1489,0,No
1,2,2,0,0,5,0,0,0,0,0,0,0,1518,0,No
1,3,6,0,0,6,0,0,0,0,0,0,0,1518,0,No
1,2,2,0,1,5,0,0,0,0,0,0,0,1489,0,No
0,1,0,0,0,5,0,0,0,0,0,0,0,1518,0,No
0,0,0,0,0,3,0,0,0,0,0,0,0,1518,0,No
1,1,1,0,0,3,0,0,0,0,0,0,0,1489,0,No
2,1,2,0,3,4,0,0,0,0,0,0,0,1518,0,No
0,0,0,0,0,4,0,0,0,0,0,0,0,1314,0,No
1,2,7,0,2,5,0,0,0,0,0,0,0,1314,1,No
0,0,0,0,0,4,0,0,0,0,0,0,0,1314,0,No
1,4,10,0,2,5,0,0,0,0,0,0,0,1314,2,No
0,0,0,0,0,4,0,0,0,0,0,0,0,1314,0,No
1,3,2,0,2,3,0,0,0,0,0,0,0,615,1,No
0,0,0,0,0,4,0,0,0,0,0,0,0,1314,0,No
1,2,2,0,3,5,0,0,0,0,0,0,0,1314,1,No
1,0,2,0,0,4,0,0,0,0,0,0,0,1314,0,No
0,0,0,0,0,4,0,0,0,0,0,0,0,1314,0,No
3,5,19,2,2,7,1,1,0,0,1,16,36,1314,2,No
4,1,7,0,2,5,0,0,0,0,0,0,0,1314,0,No
0,0,0,0,0,4,0,0,0,0,0,0,0,1079,0,No
1,2,7,0,2,5,0,0,0,0,0,0,0,975,0,No
0,0,0,0,0,4,0,0,0,0,0,0,0,1314,0,No
1,9,20,0,3,6,0,0,0,0,0,0,0,1048,2,No
0,0,0,0,0,4,0,0,0,0,0,0,0,1079,0,No
1,4,9,0,2,5,0,0,0,0,0,0,0,1314,1,No
0,0,0,0,0,4,0,0,0,0,0,0,0,1079,0,No
1,3,5,0,2,5,0,0,0,0,0,0,0,1079,1,No
0,0,0,0,0,4,0,0,0,0,0,0,0,1079,0,No
1,2,7,0,2,8,0,0,0,0,0,0,0,1079,1,No
0,0,0,0,0,4,0,0,0,0,0,0,0,1314,0,No
0,0,0,0,1,4,0,0,0,0,0,0,0,1314,0,No
2,13,17,0,1,1,0,0,0,0,0,0,0,285,0,No
1,3,5,0,2,5,0,0,0,0,0,0,0,1314,0,No
0,0,0,0,0,4,0,0,0,0,0,0,0,1079,0,No
1,3,7,2,2,9,1,1,0,0,1,16,36,1073,0,No
0,0,0,0,1,4,0,0,0,0,0,0,0,1314,0,No
1,2,2,0,2,3,0,0,0,0,0,0,0,615,0,No
0,0,0,0,0,4,0,0,0,0,0,0,0,1314,0,No
1,2,3,0,2,3,0,0,0,0,0,0,0,615,0,No
0,0,0,0,0,5,0,0,0,0,0,0,0,1314,0,No
3,13,23,0,2,7,0,0,0,0,0,0,0,985,0,Yes
1,3,24,0,2,7,0,0,0,0,0,0,0,978,0,No
0,0,0,0,0,4,0,0,0,0,0,0,0,1479,0,No
12,2,58,0,0,7,0,0,0,0,0,0,0,1035,0,No
0,0,0,0,0,4,0,0,0,0,0,0,0,1479,0,No
0,0,0,0,0,5,0,0,0,0,0,0,0,1479,0,No
1,2,1,0,0,4,0,0,0,0,0,0,0,1048,1,No
1,7,18,0,0,5,0,0,0,0,0,0,0,1048,1,No
0,0,0,0,0,1,0,0,0,0,0,0,0,617,1,No
1,1,1,0,1,6,0,0,0,0,0,0,0,978,0,No
17,4,17,0,0,3,0,0,0,0,0,0,0,531,0,No
4,3,4,0,0,4,0,0,0,0,0,0,0,562,0,No
2,2,2,0,0,5,0,0,0,0,0,0,0,1079,2,No
2,2,2,0,0,5,0,0,0,0,0,0,0,1479,0,No
16,1,42,0,1,5,0,0,0,0,0,0,0,1433,0,No
1,0,1,0,1,4,0,0,0,0,0,0,0,1518,0,No
3,3,3,0,0,4,0,0,0,0,0,0,0,870,0,No
4,2,4,0,1,2,0,0,0,0,0,0,0,618,0,No
0,0,0,0,0,6,0,0,0,0,0,0,0,1479,0,No
10,25,66,2,3,6,1,1,0,0,1,16,36,618,11,No
11,0,21,0,0,2,0,0,0,0,0,0,0,525,2,No
22,10,97,0,0,8,0,0,0,0,0,0,0,1391,40,No
4,5,10,0,0,5,0,0,0,0,0,0,0,596,0,No
2,7,11,2,3,4,1,1,0,0,1,16,36,574,0,No
2,7,12,0,1,4,0,0,0,0,0,0,0,618,1,No
20,28,67,0,9,9,0,0,0,0,0,0,0,1456,5,No
0,0,0,0,0,3,0,0,0,0,0,0,0,1479,0,No
4,8,7,0,2,5,0,0,0,0,0,0,0,1071,1,No
1,0,1,0,2,3,0,0,0,0,0,0,0,1479,0,No
2,2,5,0,1,3,0,0,0,0,0,0,0,1079,2,No
3,1,12,0,0,4,0,0,0,0,0,0,0,947,1,No
1,0,1,0,1,3,0,0,0,0,0,0,0,1479,0,No
0,0,0,0,0,3,0,0,0,0,0,0,0,1479,0,No
4,1,5,0,1,4,0,0,0,0,0,0,0,1079,0,No
0,0,0,0,0,4,0,0,0,0,0,0,0,1079,0,No
2,9,11,0,0,4,0,0,0,0,0,0,0,873,1,No
0,0,0,0,0,3,0,0,0,0,0,0,0,1079,1,No
2,1,2,0,0,5,0,0,0,0,0,0,0,873,0,No
0,1,0,0,0,4,0,0,0,0,0,0,0,1079,0,No
7,14,42,0,2,5,0,0,0,0,0,0,0,1079,4,No
2,2,11,0,1,3,0,0,0,0,0,0,0,848,0,No
7,17,49,0,2,5,0,0,0,0,0,0,0,1079,5,No
10,0,10,0,0,1,0,0,0,0,0,0,0,244,0,No
6,12,19,0,1,5,0,0,0,0,0,0,0,1518,6,No
0,1,0,0,1,5,0,0,0,0,0,0,0,1479,1,No
3,4,4,0,1,5,0,0,0,0,0,0,0,1297,0,No
10,11,25,0,3,8,0,0,0,0,0,0,0,1443,3,No
14,17,43,31,3,9,8,5,-15,1,8,29,54,1458,5,No
1,3,5,0,2,2,0,0,0,0,0,0,0,239,4,No
6,9,21,2,3,7,1,1,0,0,1,16,36,1470,1,No
12,19,34,0,2,7,0,0,0,0,0,0,0,1240,4,No
7,5,18,0,2,7,0,0,0,0,0,0,0,975,4,No
16,13,32,0,4,7,0,0,0,0,0,0,0,1035,1,No
17,18,53,0,2,8,0,0,0,0,0,0,0,873,7,No
10,25,37,2,3,8,1,1,0,0,1,16,36,1456,2,No
12,23,42,5,4,9,2,2,-1,0,1,1,1,1447,2,No
6,9,21,2,2,7,1,1,0,0,1,16,36,1475,1,No
19,26,63,0,3,7,0,0,0,0,0,0,0,1352,6,No
1,0,1,0,0,4,0,0,0,0,0,0,0,1518,0,No
0,0,0,0,1,2,0,0,0,0,0,0,0,239,0,No
40,33,88,10,9,9,8,8,6,6,1,3,3,1485,1,No
9,9,21,0,1,7,0,0,0,0,0,0,0,965,0,No
6,9,21,2,2,8,1,1,0,0,1,16,36,1153,1,No
7,5,7,0,2,6,0,0,0,0,0,0,0,968,1,No
13,38,150,2,4,7,1,1,0,0,1,16,36,1446,9,Yes
2,2,2,0,0,4,0,0,0,0,0,0,0,1479,0,No
2,2,2,0,0,4,0,0,0,0,0,0,0,1443,0,No
5,9,35,70,0,6,43,35,16,16,7,13,18,1458,0,No
2,2,2,0,0,5,0,0,0,0,0,0,0,1479,0,No
4,6,7,0,2,4,0,0,0,0,0,0,0,1470,0,No
3,2,3,0,1,5,0,0,0,0,0,0,0,975,0,No
3,19,35,0,1,5,0,0,0,0,0,0,0,1034,0,No
7,11,23,0,0,5,0,0,0,0,0,0,0,873,1,No
13,23,57,2,3,6,1,1,0,0,1,16,36,1456,0,No
6,25,54,0,2,7,0,0,0,0,0,0,0,1468,5,Yes
4,10,9,0,2,5,0,0,0,0,0,0,0,1470,0,No
7,26,50,2,1,8,1,1,0,0,1,16,36,1356,1,No
8,0,10,0,0,4,0,0,0,0,0,0,0,1485,0,No
14,32,57,6,8,11,3,2,0,0,2,19,39,1468,5,Yes
6,8,10,0,0,6,0,0,0,0,0,0,0,965,0,No
4,2,4,0,0,5,0,0,0,0,0,0,0,1153,0,No
3,0,18,0,1,3,0,0,0,0,0,0,0,530,1,No
9,11,36,0,3,6,0,0,0,0,0,0,0,530,1,No
5,0,5,0,0,4,0,0,0,0,0,0,0,1454,1,No
2,2,4,0,0,4,0,0,0,0,0,0,0,667,0,No
6,9,16,4,4,7,2,1,0,0,2,19,39,1294,2,Yes
1,1,3,0,0,1,0,0,0,0,0,0,0,456,0,No
1,7,9,0,2,4,0,0,0,0,0,0,0,1294,0,No
10,8,10,0,1,4,0,0,0,0,0,0,0,530,0,No
14,10,16,0,0,5,0,0,0,0,0,0,0,529,0,No
1,0,1,0,0,6,0,0,0,0,0,0,0,1518,0,No
32,0,32,0,0,3,0,0,0,0,0,0,0,530,0,No
2,4,2,0,0,5,0,0,0,0,0,0,0,1518,0,No
5,7,17,0,1,4,0,0,0,0,0,0,0,545,2,No
6,4,6,0,0,2,0,0,0,0,0,0,0,524,0,No
8,10,22,0,1,4,0,0,0,0,0,0,0,525,0,No
14,9,15,0,0,3,0,0,0,0,0,0,0,524,0,No
11,10,11,0,0,5,0,0,0,0,0,0,0,529,0,No
14,7,14,0,1,3,0,0,0,0,0,0,0,523,0,No
6,11,21,0,0,4,0,0,0,0,0,0,0,526,0,No
16,17,24,0,0,5,0,0,0,0,0,0,0,519,0,No
7,5,10,0,0,2,0,0,0,0,0,0,0,524,0,No
26,10,26,0,2,5,0,0,0,0,0,0,0,520,0,No
5,4,5,0,1,6,0,0,0,0,0,0,0,1518,0,No
3,4,7,0,1,2,0,0,0,0,0,0,0,517,1,No
6,2,6,0,0,7,0,0,0,0,0,0,0,954,3,No
6,2,6,0,0,7,0,0,0,0,0,0,0,954,6,No
1,1,1,0,1,6,0,0,0,0,0,0,0,1479,0,No
15,3,20,6,0,6,3,3,0,0,1,16,36,971,0,No
7,25,29,0,3,5,0,0,0,0,0,0,0,555,0,No
6,23,71,2,3,6,1,1,0,0,1,16,36,617,1,No
27,55,133,94,11,9,50,40,6,4,4,5,5,1079,16,Yes
3,0,3,0,0,3,0,0,0,0,0,0,0,1518,0,No
33,48,142,0,2,5,0,0,0,0,0,0,0,1446,22,No
10,1,41,2,0,7,1,1,0,0,1,16,36,1013,8,No
5,4,57,2,3,7,1,1,0,0,1,16,36,902,6,Yes
3,0,38,0,0,1,0,0,0,0,0,0,0,455,9,No
13,1,16,2,2,1,1,1,0,0,1,16,36,489,0,No
8,1,18,0,0,5,0,0,0,0,0,0,0,1217,1,No
4,0,8,0,0,2,0,0,0,0,0,0,0,553,4,No
0,0,0,0,0,5,0,0,0,0,0,0,0,1479,0,No
9,30,105,2,6,6,1,1,0,0,1,16,36,853,9,No
4,1,16,2,1,4,1,1,0,0,1,16,36,667,0,No
4,0,4,27,0,6,17,17,7,7,1,2,2,1479,1,No
4,10,20,0,0,4,0,0,0,0,0,0,0,1079,0,No
1,0,5,0,1,1,0,0,0,0,0,0,0,462,0,No
5,1,14,0,1,2,0,0,0,0,0,0,0,504,0,No
6,1,6,8,1,3,4,4,0,0,1,16,36,504,0,No
7,0,8,0,0,4,0,0,0,0,0,0,0,1518,0,No
2,1,4,0,0,4,0,0,0,0,0,0,0,950,0,No
2,0,4,0,0,4,0,0,0,0,0,0,0,1518,0,No
2,0,2,0,0,5,0,0,0,0,0,0,0,1479,0,No
9,7,36,4,2,4,2,2,0,0,1,16,36,1176,10,No
14,0,18,4,1,5,2,2,0,0,1,16,36,902,0,No
2,0,6,0,0,4,0,0,0,0,0,0,0,902,1,No
3,2,4,0,1,5,0,0,0,0,0,0,0,1134,3,No
7,3,7,0,2,5,0,0,0,0,0,0,0,596,0,No
0,1,0,0,1,5,0,0,0,0,0,0,0,1079,0,No
3,0,3,0,1,6,0,0,0,0,0,0,0,1479,0,No
9,1,9,8,1,4,4,4,0,0,1,16,36,968,0,Yes
1,6,3,0,2,4,0,0,0,0,0,0,0,534,1,No
0,0,0,0,0,3,0,0,0,0,0,0,0,1479,0,No
5,9,5,0,0,4,0,0,0,0,0,0,0,596,0,No
10,11,10,0,1,4,0,0,0,0,0,0,0,596,0,No
4,7,4,0,0,3,0,0,0,0,0,0,0,596,0,No
13,9,13,0,1,8,0,0,0,0,0,0,0,986,0,No
14,11,18,0,6,7,0,0,0,0,0,0,0,1003,0,No
10,7,10,0,1,7,0,0,0,0,0,0,0,1003,1,No
25,15,80,2,5,7,1,1,0,0,1,16,36,992,14,Yes
3,1,5,0,1,7,0,0,0,0,0,0,0,992,3,No
1,1,1,0,0,3,0,0,0,0,0,0,0,1079,0,No
14,3,16,7,0,5,6,6,5,5,2,2,3,980,2,No
17,2,26,0,0,5,0,0,0,0,0,0,0,980,1,No
1,0,1,0,0,3,0,0,0,0,0,0,0,1079,0,No
4,0,4,0,0,3,0,0,0,0,0,0,0,1079,0,No
21,4,24,18,0,5,17,17,16,16,2,2,3,980,2,No
22,7,40,0,0,5,0,0,0,0,0,0,0,980,1,No
2,3,2,0,0,3,0,0,0,0,0,0,0,992,0,No
1,1,1,0,1,4,0,0,0,0,0,0,0,1079,0,No
1,3,1,0,0,5,0,0,0,0,0,0,0,992,0,No
1,2,2,0,1,4,0,0,0,0,0,0,0,992,0,No
1,2,1,0,0,3,0,0,0,0,0,0,0,992,0,No
1,0,1,0,0,3,0,0,0,0,0,0,0,1079,1,No
1,0,1,0,0,3,0,0,0,0,0,0,0,1079,1,No
1,4,1,0,0,5,0,0,0,0,0,0,0,992,0,No
2,0,6,0,0,3,0,0,0,0,0,0,0,1000,2,No
6,0,19,6,1,3,2,2,-2,0,5,10,17,1000,1,No
3,0,9,1,0,2,1,1,1,1,5,15,18,529,6,Yes
2,0,9,0,1,3,0,0,0,0,0,0,0,1000,2,No
5,0,17,0,0,3,0,0,0,0,0,0,0,1000,1,No
1,0,10,2,0,1,1,1,0,0,5,10,17,639,5,No
4,0,5,0,0,2,0,0,0,0,0,0,0,592,1,No
16,9,18,10,1,1,5,5,0,0,5,10,17,353,0,No
21,3,29,0,0,1,0,0,0,0,0,0,0,353,1,No
3,4,17,252,1,3,126,126,0,0,5,19,136,593,4,No
2,0,4,0,0,1,0,0,0,0,0,0,0,412,0,No
3,4,3,108,0,4,54,54,0,0,5,19,136,1585,0,No
7,1,14,192,0,1,96,96,0,0,5,19,136,33,0,No
11,1,13,194,0,1,97,97,0,0,5,19,136,100,0,No
0,0,0,104,0,6,52,52,0,0,5,19,136,1146,1,No
0,0,0,52,0,5,26,26,0,0,5,19,136,1146,0,No
0,1,0,74,0,4,37,37,0,0,5,19,136,1146,0,No
0,0,0,56,0,4,28,28,0,0,5,19,136,1146,0,No
9,1,14,226,0,5,113,113,0,0,5,19,136,1501,0,No
3,0,5,0,0,5,0,0,0,0,0,0,0,1585,0,No
5,1,6,156,0,4,78,78,0,0,5,19,136,1501,0,No
3,0,4,92,0,5,46,46,0,0,5,19,136,1585,0,No
2,1,2,108,1,4,54,54,0,0,5,19,136,1585,0,No
5,2,5,162,0,2,81,81,0,0,5,19,136,252,0,No
46,0,65,602,1,4,301,301,0,0,5,19,136,1521,0,No
9,1,9,0,0,2,0,0,0,0,0,0,0,613,0,No
9,0,14,202,0,5,101,101,0,0,5,19,136,1501,0,No
0,1,0,0,0,0,0,0,0,0,0,0,0,0,0,No
0,0,0,0,0,0,0,0,0,0,0,0,0,0,0,No
2,1,2,102,0,5,51,51,0,0,5,19,136,1146,0,No
1,0,1,64,0,4,32,32,0,0,5,19,136,940,0,No
6,2,6,0,0,5,0,0,0,0,0,0,0,940,0,No
11,1,13,218,0,3,109,109,0,0,5,19,136,915,0,No
6,2,6,230,0,5,115,115,0,0,5,19,136,940,0,No
0,1,0,0,0,0,0,0,0,0,0,0,0,0,0,No
3,1,3,0,0,0,0,0,0,0,0,0,0,0,0,No
9,1,14,0,0,1,0,0,0,0,0,0,0,252,1,No
5,2,5,0,0,1,0,0,0,0,0,0,0,261,0,No
11,1,11,0,0,0,0,0,0,0,0,0,0,0,0,No
0,1,0,0,0,1,0,0,0,0,0,0,0,247,0,No
3,0,4,0,2,1,0,0,0,0,0,0,0,265,1,No
7,0,7,0,0,1,0,0,0,0,0,0,0,265,0,No
2,0,2,0,0,3,0,0,0,0,0,0,0,1546,0,No
2,4,7,0,0,1,0,0,0,0,0,0,0,80,1,No
2,0,4,0,0,0,0,0,0,0,0,0,0,0,0,No
11,0,11,0,1,2,0,0,0,0,0,0,0,265,0,No
4,0,4,0,1,2,0,0,0,0,0,0,0,265,1,No
9,0,9,0,1,2,0,0,0,0,0,0,0,265,0,No
2,0,2,0,1,2,0,0,0,0,0,0,0,265,0,No
7,4,7,224,1,3,112,112,0,0,5,19,136,612,0,No
13,7,13,404,1,3,202,202,0,0,5,19,136,612,0,No
2,1,2,108,0,4,54,54,0,0,5,19,136,1585,0,No
0,0,0,0,1,1,0,0,0,0,0,0,0,264,16,No
5,3,5,198,1,3,99,99,0,0,5,19,136,612,1,No
5,1,5,196,0,4,98,98,0,0,5,19,136,607,0,No
7,3,7,256,3,3,128,128,0,0,5,19,136,608,0,No
13,5,13,390,2,3,195,195,0,0,5,19,136,611,0,No
11,8,11,368,0,3,184,184,0,0,5,19,136,611,0,No
17,6,17,598,2,4,299,299,0,0,5,19,136,613,0,No
5,3,5,238,0,3,119,119,0,0,5,19,136,607,0,No
16,11,16,490,3,4,245,245,0,0,5,19,136,608,0,No
5,2,5,6,1,7,5,5,4,4,3,23,42,1585,0,No
18,10,18,4,3,6,3,3,2,2,3,23,42,613,0,No
6,2,6,0,1,6,0,0,0,0,0,0,0,1585,1,No
4,2,4,178,1,4,89,89,0,0,5,19,136,612,0,No
6,0,8,172,0,7,86,86,0,0,5,19,136,1552,0,No
10,1,14,178,0,4,89,89,0,0,5,19,136,1423,0,No
8,2,8,182,0,4,91,91,0,0,5,19,136,1585,0,No
2,1,2,90,0,4,45,45,0,0,5,19,136,1585,0,No
3,0,7,0,0,5,0,0,0,0,0,0,0,1585,0,No
15,2,15,234,0,5,117,117,0,0,5,19,136,1146,0,No
9,1,11,0,0,2,0,0,0,0,0,0,0,409,0,No
9,1,13,200,0,6,100,100,0,0,5,19,136,1423,0,No
3,2,3,138,0,4,69,69,0,0,5,19,136,1585,0,No
5,1,5,188,0,5,94,94,0,0,5,19,136,1585,0,No
0,0,0,60,0,1,30,30,0,0,5,19,136,247,0,No
11,2,11,194,0,4,97,97,0,0,5,19,136,1523,0,No
3,1,3,0,0,4,0,0,0,0,0,0,0,1585,2,No
19,3,21,354,0,7,177,177,0,0,5,19,136,1525,0,No
2,0,3,116,1,6,58,58,0,0,5,19,136,961,0,No
10,1,10,0,0,1,0,0,0,0,0,0,0,285,0,No
2,0,2,78,0,4,39,39,0,0,5,19,136,1542,0,No
7,2,8,0,2,2,0,0,0,0,0,0,0,306,0,No
4,2,4,104,0,4,52,52,0,0,5,19,136,1585,0,No
16,3,16,270,0,6,135,135,0,0,5,19,136,1530,0,No
10,2,23,246,1,5,123,122,0,0,10,34,154,665,1,No
4,0,4,98,0,5,49,49,0,0,5,19,136,1585,0,No
26,3,26,354,0,7,177,177,0,0,5,19,136,1042,0,No
13,1,13,212,0,6,106,106,0,0,5,19,136,1035,0,No
2,2,2,110,0,4,55,55,0,0,5,19,136,1585,0,No
10,3,10,308,0,1,154,154,0,0,5,19,136,108,1,No
18,3,18,246,0,4,123,123,0,0,5,19,136,1423,0,No
4,0,4,98,0,2,49,49,0,0,5,19,136,247,0,No
2,0,2,80,0,4,40,40,0,0,5,19,136,1146,0,No
18,2,26,306,0,5,153,153,0,0,5,19,136,940,0,No
40,3,40,540,1,5,270,270,0,0,5,19,136,1521,0,No
35,0,39,516,1,5,258,258,0,0,5,19,136,1514,0,No
12,0,16,202,0,5,101,101,0,0,5,19,136,1585,0,No
24,2,25,312,0,6,156,156,0,0,5,19,136,1585,0,No
2,2,2,110,0,4,55,55,0,0,5,19,136,1585,0,No
6,0,6,118,0,5,59,59,0,0,5,19,136,1146,0,No
2,0,2,78,0,4,39,39,0,0,5,19,136,1423,0,No
20,0,26,326,0,6,163,163,0,0,5,19,136,1552,1,No
2,0,2,76,0,5,38,38,0,0,5,19,136,1585,0,No
17,2,17,242,0,4,121,121,0,0,5,19,136,1048,0,No
20,2,27,346,0,6,173,173,0,0,5,19,136,1048,3,No
0,1,0,0,0,0,0,0,0,0,0,0,0,0,0,No
0,1,0,54,0,4,27,27,0,0,5,19,136,1546,1,No
18,1,22,380,0,5,190,190,0,0,5,19,136,1546,0,No
0,0,0,62,0,5,31,31,0,0,5,19,136,1546,0,No
2,0,4,102,0,4,51,51,0,0,5,19,136,1585,3,No
1,0,1,122,2,5,61,61,0,0,5,19,136,1585,1,No
7,4,10,220,2,3,110,110,0,0,5,19,136,899,0,No
2,0,2,108,0,6,54,54,0,0,5,19,136,1546,0,No
4,0,7,210,0,2,105,105,0,0,5,19,136,314,1,No
1,0,1,76,0,6,38,38,0,0,5,19,136,1546,1,No
16,1,18,250,0,5,125,125,0,0,5,19,136,1585,1,No
6,1,6,138,0,4,69,69,0,0,5,19,136,1585,1,No
1,0,1,82,0,4,41,41,0,0,5,19,136,1546,0,No
0,0,0,78,0,5,39,39,0,0,5,19,136,1546,0,No
2,0,2,144,2,3,72,72,0,0,5,19,136,872,0,No
5,0,18,402,2,7,201,201,0,0,5,19,136,1546,9,No
2,0,2,98,0,4,49,49,0,0,5,19,136,1546,0,No
1,0,1,92,0,5,46,46,0,0,5,19,136,1546,0,No
0,0,0,0,1,3,0,0,0,0,0,0,0,566,0,No
0,0,0,108,0,5,54,54,0,0,5,19,136,1546,0,No
46,1,50,747,0,7,380,367,13,13,8,42,178,1115,0,No
2,0,2,122,0,6,61,61,0,0,5,19,136,1546,1,No
2,0,5,0,0,5,0,0,0,0,0,0,0,1146,1,No
0,0,0,58,0,4,29,29,0,0,5,19,136,1546,0,No
2,0,3,98,0,5,49,49,0,0,5,19,136,1546,1,No
0,0,0,0,0,5,0,0,0,0,0,0,0,1146,0,No
0,0,0,64,0,4,32,32,0,0,5,19,136,1546,0,No
1,0,1,68,0,5,34,34,0,0,5,19,136,1546,1,No
0,0,0,0,0,5,0,0,0,0,0,0,0,1546,0,No
0,0,0,0,0,5,0,0,0,0,0,0,0,1546,0,No
0,0,0,62,1,6,31,31,0,0,5,19,136,1546,0,No
2,4,5,136,1,4,68,68,0,0,5,19,136,1146,3,No
1,0,2,68,0,5,34,34,0,0,5,19,136,1546,0,No
8,2,9,194,0,8,97,97,0,0,5,19,136,1546,0,No
2,0,5,108,0,6,54,54,0,0,5,19,136,1146,2,No
0,0,0,86,0,4,43,43,0,0,5,19,136,1546,0,No
0,0,0,94,0,5,47,47,0,0,5,19,136,1546,0,No
0,0,0,64,0,4,32,32,0,0,5,19,136,1146,0,No
2,0,2,0,0,0,0,0,0,0,0,0,0,0,0,No
0,1,0,46,0,4,23,23,0,0,5,19,136,1546,0,No
10,13,67,993,1,7,497,495,1,1,8,42,178,1028,0,No
4,0,23,0,0,1,0,0,0,0,0,0,0,408,4,No
5,4,10,164,2,4,82,80,0,0,7,21,138,597,1,No
2,4,19,0,2,2,0,0,0,0,0,0,0,306,2,No
3,1,4,0,0,1,0,0,0,0,0,0,0,247,1,No
0,0,0,60,0,1,30,30,0,0,5,19,136,247,0,No
0,0,0,60,0,1,30,30,0,0,5,19,136,247,0,No
0,0,0,60,0,1,30,30,0,0,5,19,136,247,0,No
0,0,0,60,0,1,30,30,0,0,5,19,136,247,0,No
0,0,0,60,0,1,30,30,0,0,5,19,136,247,0,No
0,0,0,60,0,2,30,30,0,0,5,19,136,247,0,No
0,0,0,60,0,1,30,30,0,0,5,19,136,247,0,No
0,0,0,0,0,1,0,0,0,0,0,0,0,247,0,No
0,0,0,0,1,6,0,0,0,0,0,0,0,1546,0,No
0,0,0,60,0,1,30,30,0,0,5,19,136,247,0,No
0,0,0,60,0,1,30,30,0,0,5,19,136,247,0,No
0,1,0,0,0,1,0,0,0,0,0,0,0,247,0,No
14,20,27,0,1,6,0,0,0,0,0,0,0,1546,0,No
1,2,8,0,1,3,0,0,0,0,0,0,0,1409,1,No
20,3,24,0,3,8,0,0,0,0,0,0,0,1546,0,No
1,0,1,0,0,1,0,0,0,0,0,0,0,335,0,No
4,2,10,0,2,7,0,0,0,0,0,0,0,1038,2,No
3,0,3,0,0,2,0,0,0,0,0,0,0,747,0,No
0,0,0,0,0,3,0,0,0,0,0,0,0,478,0,No
0,0,0,0,0,2,0,0,0,0,0,0,0,478,0,No
0,0,0,0,0,4,0,0,0,0,0,0,0,1546,0,No
3,1,4,0,0,5,0,0,0,0,0,0,0,1146,2,No
6,0,9,0,0,4,0,0,0,0,0,0,0,927,0,No
3,0,3,0,0,2,0,0,0,0,0,0,0,584,1,No
2,0,2,0,0,5,0,0,0,0,0,0,0,1146,0,No
10,0,20,0,2,6,0,0,0,0,0,0,0,1300,2,Yes
7,2,12,0,0,4,0,0,0,0,0,0,0,1305,1,No
1,1,4,0,0,3,0,0,0,0,0,0,0,1585,1,No
1,6,3,0,1,4,0,0,0,0,0,0,0,1215,0,No
2,0,3,0,0,3,0,0,0,0,0,0,0,1585,0,No
7,0,12,0,0,5,0,0,0,0,0,0,0,1145,1,No
2,3,12,0,2,6,0,0,0,0,0,0,0,1263,2,No
2,0,7,0,1,5,0,0,0,0,0,0,0,1265,0,No
2,0,7,0,0,6,0,0,0,0,0,0,0,1374,0,No
5,1,5,0,0,1,0,0,0,0,0,0,0,312,0,No
3,2,3,0,0,4,0,0,0,0,0,0,0,1585,0,No
2,0,2,0,0,5,0,0,0,0,0,0,0,1546,1,No
12,3,12,0,0,4,0,0,0,0,0,0,0,1585,0,No
14,10,52,0,0,5,0,0,0,0,0,0,0,928,3,No
2,0,6,0,0,1,0,0,0,0,0,0,0,69,0,No
3,3,6,0,0,1,0,0,0,0,0,0,0,69,2,No
1,0,1,0,1,7,0,0,0,0,0,0,0,1585,0,No
8,3,28,0,0,4,0,0,0,0,0,0,0,927,1,No
2,0,4,0,0,1,0,0,0,0,0,0,0,584,0,No
4,12,4,0,1,6,0,0,0,0,0,0,0,1546,0,No
4,6,6,0,1,7,0,0,0,0,0,0,0,1145,1,No
2,2,2,0,0,5,0,0,0,0,0,0,0,1215,0,No
0,0,0,0,0,2,0,0,0,0,0,0,0,335,0,No
8,8,9,147,1,8,78,78,9,9,2,8,19,1145,0,No
0,0,0,0,0,4,0,0,0,0,0,0,0,1546,0,No
10,12,29,0,5,6,0,0,0,0,0,0,0,1045,2,No
0,1,0,0,1,5,0,0,0,0,0,0,0,1546,0,No
6,2,10,0,2,8,0,0,0,0,0,0,0,1546,2,No
0,0,0,0,1,5,0,0,0,0,0,0,0,1546,0,No
6,6,7,0,3,3,0,0,0,0,0,0,0,544,1,Yes
4,2,4,0,0,3,0,0,0,0,0,0,0,544,0,No
25,22,50,0,6,8,0,0,0,0,0,0,0,1546,12,No
3,5,13,0,0,2,0,0,0,0,0,0,0,550,0,No
14,17,51,19,6,8,14,14,9,9,1,1,1,1521,3,Yes
4,6,12,0,3,7,0,0,0,0,0,0,0,1521,1,No
11,4,12,0,3,7,0,0,0,0,0,0,0,1494,1,No
2,8,5,2,6,6,1,1,0,0,3,23,42,940,0,No
0,0,0,0,1,3,0,0,0,0,0,0,0,1546,0,No
0,0,0,0,0,3,0,0,0,0,0,0,0,1146,0,No
0,0,0,0,0,1,0,0,0,0,0,0,0,415,0,No
0,0,0,0,0,3,0,0,0,0,0,0,0,1546,0,No
0,1,0,0,0,2,0,0,0,0,0,0,0,587,2,No
10,10,12,0,7,8,0,0,0,0,0,0,0,1545,5,No
0,1,0,0,0,5,0,0,0,0,0,0,0,1544,0,No
4,6,4,0,4,8,0,0,0,0,0,0,0,1494,2,No
13,15,37,0,8,8,0,0,0,0,0,0,0,1035,4,No
0,3,0,0,1,6,0,0,0,0,0,0,0,1035,0,No
23,20,49,0,5,8,0,0,0,0,0,0,0,1045,7,No
0,2,0,0,1,4,0,0,0,0,0,0,0,1215,0,No
7,17,14,0,1,3,0,0,0,0,0,0,0,335,5,No
5,8,8,24,0,2,10,10,-4,0,2,8,19,79,0,No
3,3,3,0,0,4,0,0,0,0,0,0,0,927,0,No
39,19,75,0,5,8,0,0,0,0,0,0,0,927,3,No
12,17,73,0,4,7,0,0,0,0,0,0,0,915,3,No
19,17,44,0,10,9,0,0,0,0,0,0,0,1546,6,No
5,9,18,0,8,8,0,0,0,0,0,0,0,1515,3,No
40,15,51,0,8,8,0,0,0,0,0,0,0,1546,17,No
13,12,39,0,1,6,0,0,0,0,0,0,0,928,3,No
5,5,9,0,6,8,0,0,0,0,0,0,0,1494,1,No
4,5,6,0,0,4,0,0,0,0,0,0,0,678,1,No
1,2,1,0,0,5,0,0,0,0,0,0,0,1215,0,No
8,8,13,0,5,8,0,0,0,0,0,0,0,1546,5,No
2,2,3,0,0,7,0,0,0,0,0,0,0,1145,0,No
19,14,35,0,5,8,0,0,0,0,0,0,0,1539,2,No
11,12,55,0,3,9,0,0,0,0,0,0,0,1521,5,No
20,16,59,0,1,8,0,0,0,0,0,0,0,954,11,No
2,5,3,6,1,8,6,6,6,6,2,8,19,1145,0,No
11,14,19,0,6,8,0,0,0,0,0,0,0,1410,2,No
11,13,17,0,5,8,0,0,0,0,0,0,0,1546,1,No
10,10,12,0,4,8,0,0,0,0,0,0,0,1045,3,No
10,9,20,18,6,8,18,18,18,18,3,23,42,1494,2,No
3,4,4,0,0,5,0,0,0,0,0,0,0,678,1,No
2,5,4,3,0,6,2,2,1,1,3,23,42,1215,1,No
2,2,2,0,0,5,0,0,0,0,0,0,0,1215,0,No
7,9,10,0,6,8,0,0,0,0,0,0,0,1546,4,No
2,1,2,0,0,5,0,0,0,0,0,0,0,1215,0,No
4,6,12,0,1,8,0,0,0,0,0,0,0,1215,1,No
2,3,2,0,0,6,0,0,0,0,0,0,0,1546,0,No
2,4,3,0,2,2,0,0,0,0,0,0,0,289,2,No
12,12,61,0,2,4,0,0,0,0,0,0,0,626,1,No
17,8,23,0,7,8,0,0,0,0,0,0,0,1038,1,No
6,10,12,0,0,1,0,0,0,0,0,0,0,79,0,No
0,3,0,0,1,3,0,0,0,0,0,0,0,478,0,No
0,3,0,0,0,6,0,0,0,0,0,0,0,940,0,No
10,6,10,0,0,1,0,0,0,0,0,0,0,335,0,No
4,8,5,0,3,3,0,0,0,0,0,0,0,544,1,No
6,8,17,0,0,1,0,0,0,0,0,0,0,332,1,No
10,23,56,0,3,7,0,0,0,0,0,0,0,1130,3,No
9,0,11,0,0,0,0,0,0,0,0,0,0,0,2,No
9,11,19,0,2,6,0,0,0,0,0,0,0,1213,1,No
8,4,19,0,2,2,0,0,0,0,0,0,0,306,3,No
1,0,1,0,0,1,0,0,0,0,0,0,0,335,0,No
2,0,2,0,0,4,0,0,0,0,0,0,0,1546,0,No
21,11,46,0,4,3,0,0,0,0,0,0,0,306,1,No
11,13,33,0,6,7,0,0,0,0,0,0,0,1130,0,No
3,1,7,0,1,2,0,0,0,0,0,0,0,124,0,No
11,10,23,0,3,8,0,0,0,0,0,0,0,1546,6,No
15,16,25,0,3,8,0,0,0,0,0,0,0,1096,5,No
14,16,31,0,2,7,0,0,0,0,0,0,0,1102,1,No
12,12,24,0,3,8,0,0,0,0,0,0,0,1546,6,No
9,10,21,0,0,2,0,0,0,0,0,0,0,79,6,No
7,15,28,0,3,7,0,0,0,0,0,0,0,940,2,No
11,11,14,0,1,7,0,0,0,0,0,0,0,940,2,No
19,20,94,10,10,9,2,2,-6,0,5,15,18,940,2,No
5,5,15,0,0,7,0,0,0,0,0,0,0,1054,1,No
6,13,18,0,2,8,0,0,0,0,0,0,0,1130,2,No
20,13,40,0,5,4,0,0,0,0,0,0,0,678,3,No
6,7,6,0,3,7,0,0,0,0,0,0,0,1031,3,No
7,3,7,0,1,4,0,0,0,0,0,0,0,626,1,No
11,11,15,0,5,5,0,0,0,0,0,0,0,626,1,No
6,7,11,0,0,7,0,0,0,0,0,0,0,1054,1,No
7,7,7,0,0,5,0,0,0,0,0,0,0,1031,5,No
9,14,10,0,2,7,0,0,0,0,0,0,0,1031,4,No
13,12,27,0,3,8,0,0,0,0,0,0,0,1546,6,No
13,0,13,0,0,0,0,0,0,0,0,0,0,0,0,No
22,1,68,0,1,3,0,0,0,0,0,0,0,626,3,No
3,5,4,0,2,5,0,0,0,0,0,0,0,678,0,No
10,1,14,0,2,2,0,0,0,0,0,0,0,306,0,No
8,16,17,0,1,7,0,0,0,0,0,0,0,940,3,No
13,11,25,0,0,2,0,0,0,0,0,0,0,79,6,No
0,3,0,0,0,6,0,0,0,0,0,0,0,940,0,No
1,7,2,4,2,7,2,2,0,0,3,23,42,1042,2,No
7,5,9,0,1,6,0,0,0,0,0,0,0,1546,1,No
16,20,34,0,8,5,0,0,0,0,0,0,0,626,2,No
12,14,34,0,2,6,0,0,0,0,0,0,0,1213,1,No
0,0,0,0,0,5,0,0,0,0,0,0,0,1146,1,No
2,2,5,0,0,1,0,0,0,0,0,0,0,69,0,No
1,1,2,0,0,1,0,0,0,0,0,0,0,69,0,No
2,0,7,0,0,1,0,0,0,0,0,0,0,289,2,No
2,1,2,3,0,1,1,1,-1,0,5,10,17,289,0,No
1,1,5,5,0,1,2,2,-1,0,5,10,17,289,0,No
7,4,7,2,3,6,1,1,0,0,1,1,3,1585,2,No
3,2,3,0,2,6,0,0,0,0,0,0,0,1045,0,No
2,2,2,0,1,5,0,0,0,0,0,0,0,1342,0,No
5,3,7,0,1,5,0,0,0,0,0,0,0,1585,0,No
5,3,5,0,0,6,0,0,0,0,0,0,0,1494,0,No
14,13,28,0,3,6,0,0,0,0,0,0,0,1521,1,No
2,0,2,0,0,4,0,0,0,0,0,0,0,1546,0,No
0,0,0,0,0,5,0,0,0,0,0,0,0,1546,1,No
8,7,11,0,1,6,0,0,0,0,0,0,0,1494,0,No
6,5,6,0,1,6,0,0,0,0,0,0,0,1035,0,No
7,4,14,0,4,7,0,0,0,0,0,0,0,1102,1,No
11,5,13,0,2,6,0,0,0,0,0,0,0,927,0,No
8,11,12,0,0,6,0,0,0,0,0,0,0,1515,0,No
17,14,17,4,2,7,2,2,0,0,1,1,3,1515,0,Yes
20,11,35,0,2,8,0,0,0,0,0,0,0,1585,0,No
18,15,26,12,2,8,12,12,12,12,2,8,19,1410,0,No
18,17,19,8,3,8,4,2,0,0,4,24,45,1536,0,No
5,5,7,4,0,2,2,2,0,0,3,23,42,305,1,No
5,5,8,0,0,6,0,0,0,0,0,0,0,1342,1,No
4,0,4,0,0,1,0,0,0,0,0,0,0,927,0,No
3,1,5,0,1,2,0,0,0,0,0,0,0,566,0,No
3,1,5,0,1,4,0,0,0,0,0,0,0,1265,0,No
2,0,2,0,1,4,0,0,0,0,0,0,0,1265,0,No
4,1,4,0,1,5,0,0,0,0,0,0,0,1035,1,No
3,2,6,0,0,2,0,0,0,0,0,0,0,544,0,No
1,2,10,0,1,4,0,0,0,0,0,0,0,1032,0,No
0,0,0,0,0,4,0,0,0,0,0,0,0,1546,0,No
0,1,0,0,0,4,0,0,0,0,0,0,0,1546,0,No
3,0,3,0,0,5,0,0,0,0,0,0,0,1035,0,No
1,0,2,0,1,4,0,0,0,0,0,0,0,1546,0,No
1,0,2,0,1,5,0,0,0,0,0,0,0,1035,0,No
1,1,2,0,0,4,0,0,0,0,0,0,0,1035,0,No
1,2,3,0,0,4,0,0,0,0,0,0,0,1035,0,No
1,0,1,0,0,4,0,0,0,0,0,0,0,1546,0,No
5,0,5,0,1,5,0,0,0,0,0,0,0,1585,3,No
32,3,82,0,2,5,0,0,0,0,0,0,0,954,0,No
8,1,25,2,2,8,1,1,0,0,1,1,8,1494,0,No
2,1,2,0,0,3,0,0,0,0,0,0,0,1304,0,No
5,1,5,2,3,8,1,1,0,0,1,1,8,1494,1,No
3,1,3,0,1,5,0,0,0,0,0,0,0,1102,0,No
2,1,3,2,1,5,1,1,0,0,1,1,8,1494,0,No
5,1,8,2,3,8,1,1,0,0,1,1,8,1494,1,No
8,5,16,0,0,2,0,0,0,0,0,0,0,80,4,No
1,0,1,0,0,4,0,0,0,0,0,0,0,1546,0,No
6,1,28,32,1,7,18,18,4,4,1,1,8,1102,0,No
4,1,5,5,1,8,2,2,-1,0,1,1,8,1102,3,No
9,1,26,40,2,9,19,19,-2,0,1,1,1,1102,6,No
20,0,34,18,4,7,5,5,-8,0,1,1,8,1102,0,No
0,0,0,0,0,3,0,0,0,0,0,0,0,1546,0,No
5,1,9,0,0,1,0,0,0,0,0,0,0,104,0,No
8,1,13,0,0,6,0,0,0,0,0,0,0,1102,0,Yes
1,0,1,0,2,1,0,0,0,0,0,0,0,576,0,No
9,0,30,0,0,3,0,0,0,0,0,0,0,915,1,No
8,1,47,0,1,1,0,0,0,0,0,0,0,285,2,No
1,0,1,0,0,5,0,0,0,0,0,0,0,1546,0,No
1,1,5,0,0,1,0,0,0,0,0,0,0,69,0,No
2,1,2,0,0,1,0,0,0,0,0,0,0,69,0,No
1,0,1,0,0,5,0,0,0,0,0,0,0,1546,0,No
16,1,20,0,0,3,0,0,0,0,0,0,0,629,4,No
1,0,1,0,0,5,0,0,0,0,0,0,0,1146,0,No
6,4,7,0,0,4,0,0,0,0,0,0,0,1031,0,No
1,1,1,0,0,4,0,0,0,0,0,0,0,1146,0,No
2,0,2,0,0,3,0,0,0,0,0,0,0,537,0,No
19,60,78,781,0,1,760,739,739,739,5,8,11,26,19,No
4,0,8,132,0,2,130,128,128,128,8,16,26,26,4,No
2,0,4,38,0,2,20,20,2,2,3,6,9,68,0,No
1,0,2,59,0,2,55,52,51,52,8,16,26,26,1,No
1,0,2,0,0,1,0,0,0,0,0,0,0,355,1,No
1,6,14,0,1,3,0,0,0,0,0,0,0,907,2,No
15,45,151,5,9,9,2,2,-1,0,5,15,18,919,8,No
3,2,13,0,0,1,0,0,0,0,0,0,0,285,0,No
10,9,84,0,1,5,0,0,0,0,0,0,0,684,1,No
7,11,13,0,2,7,0,0,0,0,0,0,0,1461,3,No
2,9,23,0,3,5,0,0,0,0,0,0,0,893,3,No
15,17,38,0,4,8,0,0,0,0,0,0,0,1138,5,No
1,5,10,0,1,5,0,0,0,0,0,0,0,948,0,No
1,2,1,0,1,6,0,0,0,0,0,0,0,1201,0,No
2,1,2,0,1,5,0,0,0,0,0,0,0,1146,0,No
5,3,11,0,1,3,0,0,0,0,0,0,0,601,1,No
5,9,28,0,3,6,0,0,0,0,0,0,0,1035,2,Yes
9,34,49,12,3,9,10,10,8,8,2,7,11,1035,5,No
7,0,19,0,0,1,0,0,0,0,0,0,0,332,2,No
1,2,2,0,0,2,0,0,0,0,0,0,0,409,0,No
11,3,16,0,0,6,0,0,0,0,0,0,0,1539,0,No
5,1,5,0,1,3,0,0,0,0,0,0,0,1585,0,No
2,0,2,0,0,3,0,0,0,0,0,0,0,1546,0,No
20,7,68,0,2,5,0,0,0,0,0,0,0,1574,0,No
19,0,37,0,1,4,0,0,0,0,0,0,0,1539,0,No
6,0,15,0,2,5,0,0,0,0,0,0,0,1585,1,No
5,1,5,1,2,6,0,0,-1,0,5,10,17,1559,0,No
9,2,9,0,1,4,0,0,0,0,0,0,0,1542,1,No
8,0,13,1,0,5,0,0,-1,0,5,10,17,940,0,No
12,5,19,8,0,3,7,7,6,6,5,15,18,665,9,No
17,2,24,0,0,5,0,0,0,0,0,0,0,1530,0,No
27,6,34,0,2,5,0,0,0,0,0,0,0,1572,3,No
2,0,2,0,2,5,0,0,0,0,0,0,0,1572,0,No
6,0,8,0,0,1,0,0,0,0,0,0,0,80,0,No
16,3,16,0,0,7,0,0,0,0,0,0,0,1146,0,No
8,1,12,0,0,2,0,0,0,0,0,0,0,409,1,No
8,0,11,0,0,5,0,0,0,0,0,0,0,1220,0,No
8,2,8,0,1,5,0,0,0,0,0,0,0,1542,1,No
5,1,7,0,0,5,0,0,0,0,0,0,0,1539,0,No
25,4,32,8,0,5,4,4,0,0,1,2,3,1550,0,No
10,0,10,0,0,1,0,0,0,0,0,0,0,285,0,No
4,0,4,0,0,4,0,0,0,0,0,0,0,1574,0,No
41,7,47,22,0,6,5,4,-12,0,3,10,22,1530,0,No
31,3,39,0,2,6,0,0,0,0,0,0,0,1042,0,No
16,1,17,0,0,5,0,0,0,0,0,0,0,1035,0,No
0,1,0,0,0,4,0,0,0,0,0,0,0,1539,0,No
6,4,6,0,2,5,0,0,0,0,0,0,0,1115,0,No
18,5,19,2,0,5,1,1,0,0,5,10,17,1423,0,No
0,1,0,0,0,5,0,0,0,0,0,0,0,1539,0,No
4,1,4,0,0,4,0,0,0,0,0,0,0,1546,0,No
13,2,27,0,0,4,0,0,0,0,0,0,0,940,1,No
6,1,8,0,0,4,0,0,0,0,0,0,0,940,0,No
5,2,7,0,0,4,0,0,0,0,0,0,0,940,0,No
8,1,8,0,0,5,0,0,0,0,0,0,0,1146,0,No
0,1,0,0,0,5,0,0,0,0,0,0,0,1539,0,No
6,4,8,0,1,7,0,0,0,0,0,0,0,1146,0,No
6,2,6,0,0,4,0,0,0,0,0,0,0,1574,0,No
5,0,10,0,0,4,0,0,0,0,0,0,0,1423,0,No
4,0,4,0,0,3,0,0,0,0,0,0,0,1423,0,No
10,4,14,0,0,5,0,0,0,0,0,0,0,1539,0,No
5,3,7,0,0,5,0,0,0,0,0,0,0,1381,0,No
3,2,4,0,0,5,0,0,0,0,0,0,0,1585,0,No
0,1,0,0,1,4,0,0,0,0,0,0,0,1539,0,No
14,4,18,0,0,1,0,0,0,0,0,0,0,75,0,No
11,4,16,0,0,5,0,0,0,0,0,0,0,1539,0,Yes
4,2,4,0,0,4,0,0,0,0,0,0,0,1539,0,No
5,3,7,0,0,5,0,0,0,0,0,0,0,1381,0,No
3,2,4,0,0,5,0,0,0,0,0,0,0,1585,0,No
5,3,7,0,0,5,0,0,0,0,0,0,0,1539,0,No
4,2,4,0,0,4,0,0,0,0,0,0,0,1539,0,No
0,1,0,0,0,4,0,0,0,0,0,0,0,1539,0,No
0,1,0,0,0,4,0,0,0,0,0,0,0,1539,0,No
5,3,7,0,1,7,0,0,0,0,0,0,0,1539,0,No
4,2,4,0,0,4,0,0,0,0,0,0,0,1539,0,No
0,1,0,0,0,4,0,0,0,0,0,0,0,1539,0,No
18,6,43,0,0,6,0,0,0,0,0,0,0,1509,0,No
0,0,0,0,0,3,0,0,0,0,0,0,0,1546,0,No
11,4,16,0,0,5,0,0,0,0,0,0,0,1539,0,Yes
4,1,4,0,0,5,0,0,0,0,0,0,0,1585,0,No
5,3,7,0,0,5,0,0,0,0,0,0,0,1381,0,No
3,2,4,0,0,5,0,0,0,0,0,0,0,1585,0,No
5,3,7,0,0,5,0,0,0,0,0,0,0,1539,0,No
4,1,4,0,0,5,0,0,0,0,0,0,0,1585,0,No
0,1,0,0,0,4,0,0,0,0,0,0,0,1539,0,No
8,3,19,0,0,2,0,0,0,0,0,0,0,665,1,No
3,2,5,0,0,5,0,0,0,0,0,0,0,1585,0,No
0,1,0,0,0,4,0,0,0,0,0,0,0,1539,0,No
5,3,7,0,0,6,0,0,0,0,0,0,0,1539,0,No
4,1,4,0,0,5,0,0,0,0,0,0,0,1585,0,No
0,1,0,0,0,4,0,0,0,0,0,0,0,1539,0,No
51,18,95,0,0,5,0,0,0,0,0,0,0,1539,0,Yes
53,11,92,4,5,10,2,2,0,0,3,23,42,1539,1,No
10,4,14,0,0,5,0,0,0,0,0,0,0,1539,0,Yes
5,3,7,0,0,5,0,0,0,0,0,0,0,1381,0,No
3,2,4,0,0,5,0,0,0,0,0,0,0,1585,0,No
4,3,5,0,0,5,0,0,0,0,0,0,0,1539,0,No
0,1,0,0,1,4,0,0,0,0,0,0,0,1539,0,No
10,3,23,0,0,2,0,0,0,0,0,0,0,665,1,No
3,2,5,0,0,5,0,0,0,0,0,0,0,1585,0,No
0,1,0,0,1,4,0,0,0,0,0,0,0,1539,0,No
4,3,5,0,0,6,0,0,0,0,0,0,0,1539,0,No
0,1,0,0,1,4,0,0,0,0,0,0,0,1539,0,No
3,1,3,0,0,4,0,0,0,0,0,0,0,1585,0,No
4,2,4,0,0,4,0,0,0,0,0,0,0,1585,0,No
5,2,5,0,0,4,0,0,0,0,0,0,0,1585,0,No
5,2,5,0,0,4,0,0,0,0,0,0,0,1585,0,No
4,2,4,0,0,4,0,0,0,0,0,0,0,1585,0,No
2,1,2,0,0,5,0,0,0,0,0,0,0,1546,0,No
4,1,4,0,0,3,0,0,0,0,0,0,0,1546,0,No
5,2,5,0,0,4,0,0,0,0,0,0,0,1585,0,No
5,4,5,0,0,4,0,0,0,0,0,0,0,1585,0,No
6,3,6,0,0,4,0,0,0,0,0,0,0,1585,0,No
5,3,5,0,0,4,0,0,0,0,0,0,0,1585,0,No
5,4,5,0,0,4,0,0,0,0,0,0,0,1585,0,No
0,0,0,0,0,5,0,0,0,0,0,0,0,1546,0,No
4,2,4,0,0,4,0,0,0,0,0,0,0,1146,0,No
9,6,9,3,1,5,0,0,-3,0,2,8,19,1546,0,No
7,3,7,0,1,4,0,0,0,0,0,0,0,1585,0,No
7,3,7,0,0,4,0,0,0,0,0,0,0,1585,0,No
8,6,8,0,0,4,0,0,0,0,0,0,0,1585,0,No
22,9,22,0,1,6,0,0,0,0,0,0,0,1585,0,No
5,4,5,0,0,4,0,0,0,0,0,0,0,1585,0,No
4,4,4,0,0,6,0,0,0,0,0,0,0,1585,0,No
5,4,5,0,1,6,0,0,0,0,0,0,0,1585,0,No
10,4,10,0,1,4,0,0,0,0,0,0,0,1585,0,No
8,3,8,0,0,4,0,0,0,0,0,0,0,1585,0,No
13,5,13,0,1,6,0,0,0,0,0,0,0,1585,0,No
5,2,5,0,0,4,0,0,0,0,0,0,0,1585,0,No
5,4,5,0,0,4,0,0,0,0,0,0,0,1585,0,No
2,1,6,0,2,7,0,0,0,0,0,0,0,1542,2,No
9,3,17,0,2,4,0,0,0,0,0,0,0,1585,2,No
9,10,54,0,1,9,0,0,0,0,0,0,0,1329,3,No
3,2,5,0,0,4,0,0,0,0,0,0,0,1574,0,No
4,3,6,0,0,1,0,0,0,0,0,0,0,332,0,No
5,2,7,0,0,4,0,0,0,0,0,0,0,1574,0,Yes
5,7,8,0,0,4,0,0,0,0,0,0,0,1574,0,No
4,6,9,0,0,5,0,0,0,0,0,0,0,1574,0,No
2,3,6,0,1,7,0,0,0,0,0,0,0,1542,2,No
5,2,7,0,0,4,0,0,0,0,0,0,0,1574,0,No
5,10,11,0,0,4,0,0,0,0,0,0,0,1574,0,No
6,5,9,0,0,4,0,0,0,0,0,0,0,1574,0,No
5,4,8,0,0,4,0,0,0,0,0,0,0,948,0,No
5,5,7,0,0,5,0,0,0,0,0,0,0,1509,0,No
4,3,4,0,0,4,0,0,0,0,0,0,0,1042,0,No
1,0,6,0,2,6,0,0,0,0,0,0,0,1585,0,No
9,9,27,9,0,5,0,0,-9,0,2,8,19,1115,0,No
7,4,10,0,2,4,0,0,0,0,0,0,0,940,0,No
8,4,12,0,0,4,0,0,0,0,0,0,0,940,0,No
9,19,33,0,0,7,0,0,0,0,0,0,0,1530,0,No
30,36,89,0,2,7,0,0,0,0,0,0,0,1574,0,No
5,12,13,0,0,4,0,0,0,0,0,0,0,1574,0,No
11,2,19,0,1,1,0,0,0,0,0,0,0,264,1,No
20,17,116,0,5,7,0,0,0,0,0,0,0,1585,10,No
11,8,22,0,2,5,0,0,0,0,0,0,0,1574,0,No
9,7,14,7,0,4,3,3,-1,0,5,10,17,1574,0,No
16,17,22,0,2,9,0,0,0,0,0,0,0,1329,0,No
5,2,7,0,0,4,0,0,0,0,0,0,0,1574,0,No
5,10,11,0,0,4,0,0,0,0,0,0,0,1574,0,No
4,0,4,96,0,1,48,48,0,0,5,19,136,33,0,No
7,0,11,168,0,1,84,84,0,0,5,19,136,33,0,No
3,0,3,78,0,1,39,39,0,0,5,19,136,33,0,No
3,0,3,92,0,1,46,46,0,0,5,19,136,33,1,No
7,0,8,0,1,1,0,0,0,0,0,0,0,264,0,No
3,0,3,84,0,1,42,42,0,0,5,19,136,33,0,No
30,0,55,508,0,1,254,254,0,0,5,19,136,75,1,No
0,0,0,68,0,1,34,34,0,0,5,19,136,75,1,No
0,0,0,0,0,0,0,0,0,0,0,0,0,0,0,No
2,2,2,0,0,4,0,0,0,0,0,0,0,1556,0,No
1,2,2,0,0,5,0,0,0,0,0,0,0,1585,0,No
1,4,6,0,0,6,0,0,0,0,0,0,0,1585,0,No
1,3,2,0,1,5,0,0,0,0,0,0,0,1556,0,No
0,1,0,0,0,5,0,0,0,0,0,0,0,1585,0,No
0,0,0,0,0,3,0,0,0,0,0,0,0,1585,0,No
1,1,1,0,0,3,0,0,0,0,0,0,0,1556,0,No
0,0,0,0,0,4,0,0,0,0,0,0,0,1381,0,No
1,6,10,0,2,9,0,0,0,0,0,0,0,1140,1,No
2,1,2,0,3,4,0,0,0,0,0,0,0,1585,0,No
0,0,0,0,0,4,0,0,0,0,0,0,0,1381,0,No
1,2,7,0,2,5,0,0,0,0,0,0,0,1381,1,No
0,0,0,0,0,4,0,0,0,0,0,0,0,1381,0,No
1,4,11,0,2,5,0,0,0,0,0,0,0,1381,2,No
0,0,0,0,0,4,0,0,0,0,0,0,0,1381,0,No
1,4,5,0,2,3,0,0,0,0,0,0,0,682,1,No
1,1,2,0,0,4,0,0,0,0,0,0,0,1381,0,No
0,0,0,0,0,4,0,0,0,0,0,0,0,1381,0,No
3,5,20,0,2,7,0,0,0,0,0,0,0,1381,1,No
4,1,7,0,2,5,0,0,0,0,0,0,0,1381,0,No
0,0,0,0,0,4,0,0,0,0,0,0,0,1146,0,No
1,3,5,0,2,5,0,0,0,0,0,0,0,1042,0,No
0,0,0,0,0,4,0,0,0,0,0,0,0,1381,0,No
1,8,7,0,3,6,0,0,0,0,0,0,0,1115,3,No
0,0,0,0,0,4,0,0,0,0,0,0,0,1146,0,No
1,4,9,0,2,5,0,0,0,0,0,0,0,1381,1,No
0,0,0,0,0,4,0,0,0,0,0,0,0,1146,0,No
1,3,5,0,2,5,0,0,0,0,0,0,0,1146,1,No
0,0,0,0,0,4,0,0,0,0,0,0,0,1146,0,No
1,2,7,0,2,8,0,0,0,0,0,0,0,1146,1,No
0,0,0,0,0,4,0,0,0,0,0,0,0,1381,0,No
0,0,0,0,1,4,0,0,0,0,0,0,0,1381,0,No
2,15,18,0,1,1,0,0,0,0,0,0,0,352,0,No
1,3,8,0,2,5,0,0,0,0,0,0,0,1381,0,No
0,0,0,0,0,4,0,0,0,0,0,0,0,1381,0,No
1,2,3,0,2,3,0,0,0,0,0,0,0,682,0,No
0,0,0,0,0,5,0,0,0,0,0,0,0,1381,0,No
3,14,24,60,2,8,29,29,-2,0,3,23,42,1052,0,Yes
1,3,24,0,2,7,0,0,0,0,0,0,0,1045,0,No
0,0,0,0,0,4,0,0,0,0,0,0,0,1546,0,No
12,3,61,188,0,8,97,97,6,6,3,23,42,1102,0,No
0,0,0,0,0,4,0,0,0,0,0,0,0,1546,0,No
0,0,0,0,0,5,0,0,0,0,0,0,0,1546,0,No
1,2,1,0,0,4,0,0,0,0,0,0,0,1115,1,No
1,8,18,0,0,5,0,0,0,0,0,0,0,1115,1,No
0,0,0,0,0,1,0,0,0,0,0,0,0,684,1,No
1,1,1,0,1,6,0,0,0,0,0,0,0,1045,0,No
18,4,18,0,0,4,0,0,0,0,0,0,0,598,0,No
4,3,4,0,0,4,0,0,0,0,0,0,0,629,0,No
2,2,2,0,0,6,0,0,0,0,0,0,0,1146,2,No
2,2,2,0,0,5,0,0,0,0,0,0,0,1546,0,No
17,1,44,0,1,5,0,0,0,0,0,0,0,1500,0,No
1,0,1,0,1,4,0,0,0,0,0,0,0,1585,0,No
3,3,3,0,0,4,0,0,0,0,0,0,0,937,0,No
4,2,4,0,2,2,0,0,0,0,0,0,0,685,0,No
0,0,0,0,0,6,0,0,0,0,0,0,0,1546,0,No
11,25,65,25,4,6,2,2,-21,0,5,15,18,685,8,No
12,0,22,0,0,2,0,0,0,0,0,0,0,592,2,No
23,12,102,0,0,8,0,0,0,0,0,0,0,1458,44,No
3,9,19,0,0,2,0,0,0,0,0,0,0,82,1,No
4,5,10,0,0,5,0,0,0,0,0,0,0,663,0,No
2,7,11,0,4,4,0,0,0,0,0,0,0,641,0,No
3,9,19,0,0,2,0,0,0,0,0,0,0,82,3,No
2,7,12,0,1,4,0,0,0,0,0,0,0,685,1,No
26,29,81,0,12,10,0,0,0,0,0,0,0,1523,1,No
0,0,0,0,0,3,0,0,0,0,0,0,0,1546,0,No
4,9,7,0,3,6,0,0,0,0,0,0,0,1138,1,No
1,0,1,0,1,3,0,0,0,0,0,0,0,1546,0,No
2,2,5,0,2,3,0,0,0,0,0,0,0,1146,2,No
3,1,12,0,0,4,0,0,0,0,0,0,0,1014,1,No
1,0,1,0,1,3,0,0,0,0,0,0,0,1546,0,No
0,0,0,0,0,3,0,0,0,0,0,0,0,1546,0,No
4,1,5,0,1,4,0,0,0,0,0,0,0,1146,0,No
0,0,0,0,0,4,0,0,0,0,0,0,0,1146,0,No
2,10,11,0,0,4,0,0,0,0,0,0,0,940,2,No
0,0,0,0,0,3,0,0,0,0,0,0,0,1146,1,No
2,1,2,0,0,5,0,0,0,0,0,0,0,940,0,No
0,1,0,0,0,4,0,0,0,0,0,0,0,1146,0,No
7,16,42,0,3,5,0,0,0,0,0,0,0,1146,4,Yes
2,2,11,0,1,3,0,0,0,0,0,0,0,915,0,No
7,19,49,0,3,5,0,0,0,0,0,0,0,1146,5,Yes
10,0,10,0,0,1,0,0,0,0,0,0,0,311,0,No
1,0,4,0,0,0,0,0,0,0,0,0,0,0,0,No
2,1,4,0,1,5,0,0,0,0,0,0,0,1585,0,No
6,1,6,0,0,5,0,0,0,0,0,0,0,1585,0,No
7,4,7,2,0,7,0,0,-2,0,3,23,42,1546,0,No
0,1,0,0,1,5,0,0,0,0,0,0,0,1546,1,No
8,12,14,19,3,8,11,11,3,3,2,7,11,1510,1,No
14,17,43,0,2,9,0,0,0,0,0,0,0,1525,5,No
1,3,5,0,2,2,0,0,0,0,0,0,0,306,4,No
3,4,4,0,0,4,0,0,0,0,0,0,0,1364,0,No
12,20,37,0,2,7,0,0,0,0,0,0,0,1307,4,No
6,5,17,0,2,7,0,0,0,0,0,0,0,1042,4,No
13,13,29,0,5,7,0,0,0,0,0,0,0,1102,1,No
13,17,45,0,3,8,0,0,0,0,0,0,0,940,6,No
10,24,35,0,3,8,0,0,0,0,0,0,0,1523,2,No
18,24,50,1,7,9,0,0,-1,0,3,23,42,1514,2,Yes
7,17,47,0,2,7,0,0,0,0,0,0,0,1542,1,No
16,27,61,0,6,7,0,0,0,0,0,0,0,1419,6,No
0,0,0,0,0,7,0,0,0,0,0,0,0,1585,0,No
1,0,1,0,0,4,0,0,0,0,0,0,0,1585,0,No
0,0,0,0,1,2,0,0,0,0,0,0,0,306,0,No
26,32,72,13,14,9,6,6,-1,0,3,23,42,1552,1,No
7,11,10,0,0,2,0,0,0,0,0,0,0,411,0,No
11,6,12,0,2,6,0,0,0,0,0,0,0,1035,0,No
17,63,206,0,7,8,0,0,0,0,0,0,0,1513,8,Yes
2,2,2,0,0,4,0,0,0,0,0,0,0,1546,0,No
3,11,5,0,0,4,0,0,0,0,0,0,0,1510,0,No
5,11,36,0,0,6,0,0,0,0,0,0,0,1525,0,No
2,2,2,0,0,5,0,0,0,0,0,0,0,1546,0,No
3,3,3,0,1,5,0,0,0,0,0,0,0,1042,0,No
4,18,36,0,2,5,0,0,0,0,0,0,0,1101,0,Yes
7,12,23,0,0,5,0,0,0,0,0,0,0,940,1,No
13,24,57,0,4,6,0,0,0,0,0,0,0,1523,0,No
7,39,74,0,3,7,0,0,0,0,0,0,0,1535,5,Yes
12,14,20,0,3,5,0,0,0,0,0,0,0,1537,0,No
1,2,1,0,0,0,0,0,0,0,0,0,0,0,0,No
5,10,29,0,0,1,0,0,0,0,0,0,0,75,0,No
7,33,67,0,3,8,0,0,0,0,0,0,0,1423,1,No
7,0,9,0,0,4,0,0,0,0,0,0,0,1552,0,No
17,33,70,6,12,11,3,3,0,0,3,23,42,1535,5,Yes
3,0,18,228,1,3,114,114,0,0,5,19,136,597,1,No
10,11,46,552,3,6,276,276,0,0,5,19,136,597,1,No
5,0,5,0,0,4,0,0,0,0,0,0,0,1521,1,No
2,2,4,0,0,4,0,0,0,0,0,0,0,734,0,No
9,17,37,150,9,9,85,29,20,18,4,4,4,1361,5,No
1,8,10,0,2,4,0,0,0,0,0,0,0,1361,0,No
7,10,29,0,1,6,0,0,0,0,0,0,0,1585,1,No
1,1,4,0,0,1,0,0,0,0,0,0,0,279,0,No
8,7,8,182,1,4,91,91,0,0,5,19,136,597,0,No
13,10,15,266,1,5,133,133,0,0,5,19,136,596,0,No
2,4,2,90,0,5,45,45,0,0,5,19,136,1585,0,No
5,7,16,232,1,4,116,116,0,0,5,19,136,612,1,No
5,4,5,0,1,3,0,0,0,0,0,0,0,591,0,No
7,10,19,250,2,4,125,125,0,0,5,19,136,592,0,No
14,11,15,0,2,3,0,0,0,0,0,0,0,591,0,No
11,16,17,302,0,5,151,151,0,0,5,19,136,596,1,No
17,13,31,444,4,4,222,222,0,0,5,19,136,590,0,No
5,6,5,154,0,4,77,77,0,0,5,19,136,593,0,No
16,19,21,316,2,5,158,158,0,0,5,19,136,586,0,No
5,7,6,4,1,4,2,2,0,0,3,23,42,591,0,No
18,17,32,4,5,6,2,2,0,0,3,23,42,587,0,No
6,4,6,0,1,7,0,0,0,0,0,0,0,1585,0,No
6,5,16,232,1,3,116,116,0,0,5,19,136,584,0,No
2,1,2,6,1,6,3,3,0,0,5,10,17,1546,2,No
11,1,11,0,0,2,0,0,0,0,0,0,0,243,3,No
11,2,11,0,0,8,0,0,0,0,0,0,0,1021,3,No
9,2,9,0,0,2,0,0,0,0,0,0,0,243,12,No
9,3,9,0,0,7,0,0,0,0,0,0,0,1021,9,No
1,1,1,0,1,6,0,0,0,0,0,0,0,1546,0,No
10,3,10,0,0,2,0,0,0,0,0,0,0,73,0,No
15,3,20,0,0,6,0,0,0,0,0,0,0,1038,0,No
7,26,50,0,0,2,0,0,0,0,0,0,0,73,3,Yes
15,23,63,0,0,1,0,0,0,0,0,0,0,73,12,No
19,16,89,0,0,2,0,0,0,0,0,0,0,73,20,No
6,16,49,30,3,6,1,1,-28,0,2,8,19,684,1,No
2,12,2,0,0,2,0,0,0,0,0,0,0,243,0,No
5,13,18,0,0,3,0,0,0,0,0,0,0,88,1,No
7,28,29,10,3,5,6,6,2,2,5,10,17,622,0,No
4,10,14,0,0,3,0,0,0,0,0,0,0,88,2,No
3,17,16,4,0,2,1,1,-2,0,2,8,19,243,4,No
10,10,15,0,0,1,0,0,0,0,0,0,0,73,0,No
10,14,18,0,0,1,0,0,0,0,0,0,0,73,2,No
3,18,31,26,3,7,22,20,18,18,7,23,37,684,1,No
10,10,15,0,0,1,0,0,0,0,0,0,0,73,0,No
9,12,22,2,0,2,1,1,0,0,3,23,42,73,2,No
3,0,3,0,0,3,0,0,0,0,0,0,0,1585,0,No
37,63,193,14,5,6,14,14,14,14,5,15,18,1513,8,No
1,0,16,0,0,1,0,0,0,0,0,0,0,67,0,No
1,0,10,0,0,1,0,0,0,0,0,0,0,67,1,No
12,1,47,0,0,7,0,0,0,0,0,0,0,1080,7,No
5,4,58,0,3,7,0,0,0,0,0,0,0,969,4,Yes
3,0,38,0,0,1,0,0,0,0,0,0,0,522,9,No
13,1,16,0,2,1,0,0,0,0,0,0,0,556,0,No
6,2,20,0,1,4,0,0,0,0,0,0,0,734,2,No
8,2,19,0,0,5,0,0,0,0,0,0,0,1284,1,No
1,0,2,0,0,4,0,0,0,0,0,0,0,1585,0,No
1,0,9,6,0,2,3,3,0,0,1,1,1,67,3,No
2,0,6,6,0,2,3,3,0,0,1,1,1,67,3,No
0,0,0,0,0,5,0,0,0,0,0,0,0,1546,0,No
10,34,133,8,9,7,6,6,4,6,8,38,60,920,16,No
2,0,4,0,0,1,0,0,0,0,0,0,0,67,0,No
8,0,10,42,0,1,33,33,24,24,2,7,11,34,0,No
4,0,4,0,0,6,0,0,0,0,0,0,0,1546,1,No
4,0,6,86,0,1,85,84,84,84,7,17,28,34,2,No
1,0,7,0,0,1,0,0,0,0,0,0,0,67,0,No
9,13,33,0,0,5,0,0,0,0,0,0,0,1146,2,No
1,0,5,0,1,1,0,0,0,0,0,0,0,529,0,No
7,0,7,92,0,1,88,86,84,86,7,17,28,34,0,No
5,1,14,3,1,2,2,2,1,1,5,10,17,571,0,No
6,1,6,0,1,3,0,0,0,0,0,0,0,571,0,No
7,0,8,0,0,4,0,0,0,0,0,0,0,1585,0,No
2,0,4,0,0,4,0,0,0,0,0,0,0,1585,0,No
2,0,2,0,0,5,0,0,0,0,0,0,0,1546,0,No
9,7,44,2,3,5,1,1,0,0,5,10,17,1243,10,No
14,0,18,0,1,5,0,0,0,0,0,0,0,969,0,No
2,0,6,0,0,4,0,0,0,0,0,0,0,969,1,No
3,2,4,0,1,5,0,0,0,0,0,0,0,1201,3,No
9,3,9,0,2,5,0,0,0,0,0,0,0,663,0,No
0,0,0,0,1,6,0,0,0,0,0,0,0,1546,0,No
0,1,0,0,1,5,0,0,0,0,0,0,0,1146,0,No
3,0,3,0,1,6,0,0,0,0,0,0,0,1546,0,No
9,1,9,0,1,4,0,0,0,0,0,0,0,1035,0,Yes
1,7,3,0,2,4,0,0,0,0,0,0,0,601,1,No
0,0,0,0,0,3,0,0,0,0,0,0,0,1546,0,No
5,9,5,0,0,4,0,0,0,0,0,0,0,663,0,No
12,11,12,0,1,4,0,0,0,0,0,0,0,663,0,No
4,7,4,0,0,3,0,0,0,0,0,0,0,663,0,No
15,9,15,4,1,9,2,2,0,0,3,23,42,1053,0,No
16,11,22,10,6,8,5,5,0,0,3,23,42,1070,0,No
10,7,10,14,1,8,9,9,4,4,3,23,42,1070,1,No
3,1,8,0,0,1,0,0,0,0,0,0,0,297,3,No
35,19,106,26,5,8,14,8,2,2,6,27,46,1059,11,Yes
3,2,6,0,1,7,0,0,0,0,0,0,0,1059,3,No
1,1,1,0,0,3,0,0,0,0,0,0,0,1146,0,No
14,3,16,0,0,5,0,0,0,0,0,0,0,1047,2,No
17,2,26,0,0,5,0,0,0,0,0,0,0,1047,1,No
1,0,1,0,0,3,0,0,0,0,0,0,0,1146,0,No
4,0,4,0,0,3,0,0,0,0,0,0,0,1146,0,No
21,4,24,0,0,5,0,0,0,0,0,0,0,1047,2,No
22,7,38,0,1,5,0,0,0,0,0,0,0,1047,1,No
2,0,2,0,1,5,0,0,0,0,0,0,0,1585,1,No
1,1,1,0,1,4,0,0,0,0,0,0,0,1146,0,No
1,4,2,5,0,6,3,3,1,1,3,23,42,1059,1,No
1,2,2,0,1,4,0,0,0,0,0,0,0,1059,0,No
1,3,1,0,0,3,0,0,0,0,0,0,0,1059,0,No
1,0,1,0,0,3,0,0,0,0,0,0,0,1146,1,No
1,0,1,0,0,3,0,0,0,0,0,0,0,1146,1,No
1,5,3,0,0,5,0,0,0,0,0,0,0,1059,0,No
0,0,0,62,1,5,33,27,4,4,2,10,16,1546,1,No
3,0,3,29,1,1,22,20,15,15,2,10,16,68,0,No
4,1,7,115,1,1,73,40,31,36,10,41,67,68,3,No
3,3,3,27,1,1,14,5,1,3,5,22,36,68,3,No
6,0,6,0,0,1,0,0,0,0,0,0,0,68,6,No
2,0,2,0,0,1,0,0,0,0,0,0,0,68,3,No
2,0,5,0,0,1,0,0,0,0,0,0,0,68,1,No
2,0,5,0,0,1,0,0,0,0,0,0,0,68,1,No
2,0,2,2,0,1,1,1,0,0,1,4,11,68,1,No
1,0,1,2,0,1,1,1,0,0,1,4,11,68,1,No
0,0,0,0,0,1,0,0,0,0,0,0,0,68,1,No
0,0,0,0,0,1,0,0,0,0,0,0,0,68,1,No
0,0,0,0,0,1,0,0,0,0,0,0,0,68,1,No
0,0,0,15,0,2,7,4,-1,0,2,6,13,68,1,No
0,0,0,248,1,1,171,169,94,94,2,10,21,68,1,No
1,4,1,118,1,1,61,14,4,4,11,42,76,68,1,No
1,11,11,212,1,1,124,24,36,17,10,42,76,68,22,No
2,5,7,39,0,1,23,8,7,4,6,23,40,68,8,No
2,1,10,0,0,1,0,0,0,0,0,0,0,67,9,No
5,0,14,121,0,1,79,38,37,28,6,23,40,68,3,No
7,0,16,105,0,1,89,58,73,47,3,12,20,68,11,No
5,0,6,63,0,1,63,63,63,63,1,4,9,30,1,No
2,2,4,0,0,1,0,0,0,0,0,0,0,68,3,No
7,0,12,160,0,1,149,97,138,97,6,23,44,37,2,No
1,0,2,0,0,1,0,0,0,0,0,0,0,68,1,No
1,0,2,0,0,1,0,0,0,0,0,0,0,68,0,No
4,0,13,9,0,1,9,9,9,9,1,5,9,68,1,No
4,2,23,6,0,1,4,4,2,2,2,8,11,68,1,No
5,2,14,0,0,1,0,0,0,0,0,0,0,68,2,No
2,0,6,0,0,3,0,0,0,0,0,0,0,1025,2,No
6,0,19,0,1,3,0,0,0,0,0,0,0,1025,1,No
3,0,9,0,0,2,0,0,0,0,0,0,0,554,6,Yes
2,0,9,0,1,3,0,0,0,0,0,0,0,1025,2,No
5,0,17,0,0,3,0,0,0,0,0,0,0,1025,1,No
1,0,10,0,0,1,0,0,0,0,0,0,0,664,5,No
4,0,5,0,0,2,0,0,0,0,0,0,0,617,1,No
18,9,20,11,1,1,11,11,11,11,4,10,35,378,0,No
21,3,29,0,0,1,0,0,0,0,0,0,0,378,1,No
3,4,17,0,1,3,0,0,0,0,0,0,0,618,4,No
2,0,4,0,0,1,0,0,0,0,0,0,0,437,0,No
3,4,3,0,0,4,0,0,0,0,0,0,0,1610,0,No
7,1,14,0,0,1,0,0,0,0,0,0,0,58,0,No
11,1,13,0,0,1,0,0,0,0,0,0,0,125,0,No
0,0,0,0,0,6,0,0,0,0,0,0,0,1171,1,No
0,0,0,0,0,5,0,0,0,0,0,0,0,1171,0,No
0,1,0,0,0,4,0,0,0,0,0,0,0,1171,0,No
0,0,0,0,0,4,0,0,0,0,0,0,0,1171,0,No
9,1,14,0,0,5,0,0,0,0,0,0,0,1526,0,No
3,0,5,0,0,5,0,0,0,0,0,0,0,1610,0,No
5,1,6,0,0,4,0,0,0,0,0,0,0,1526,0,No
3,0,4,0,0,5,0,0,0,0,0,0,0,1610,0,No
2,1,2,0,1,4,0,0,0,0,0,0,0,1610,0,No
5,2,5,0,0,2,0,0,0,0,0,0,0,277,0,No
46,0,65,0,1,4,0,0,0,0,0,0,0,1546,0,No
9,1,9,0,0,2,0,0,0,0,0,0,0,638,0,No
13,0,20,24,0,5,23,23,22,22,3,26,61,1526,0,No
0,1,0,0,0,0,0,0,0,0,0,0,0,0,0,No
0,0,0,0,0,0,0,0,0,0,0,0,0,0,0,No
2,1,2,0,0,5,0,0,0,0,0,0,0,1171,0,No
1,0,1,0,0,4,0,0,0,0,0,0,0,965,0,No
6,2,6,0,0,5,0,0,0,0,0,0,0,965,0,No
11,1,13,0,0,3,0,0,0,0,0,0,0,940,0,No
6,2,6,0,0,5,0,0,0,0,0,0,0,965,0,No
0,1,0,0,0,0,0,0,0,0,0,0,0,0,0,No
3,1,3,0,0,0,0,0,0,0,0,0,0,0,0,No
9,1,14,0,0,1,0,0,0,0,0,0,0,277,1,No
5,2,5,0,0,1,0,0,0,0,0,0,0,286,0,No
11,1,11,0,0,0,0,0,0,0,0,0,0,0,0,No
0,1,0,0,0,1,0,0,0,0,0,0,0,272,0,No
3,0,4,0,2,1,0,0,0,0,0,0,0,290,1,No
7,0,7,0,0,1,0,0,0,0,0,0,0,290,0,No
2,0,2,0,0,3,0,0,0,0,0,0,0,1571,0,No
2,4,7,0,0,1,0,0,0,0,0,0,0,105,1,No
2,0,4,0,0,0,0,0,0,0,0,0,0,0,0,No
11,0,11,0,1,2,0,0,0,0,0,0,0,290,0,No
4,0,4,0,1,2,0,0,0,0,0,0,0,290,1,No
9,0,9,0,1,2,0,0,0,0,0,0,0,290,0,No
2,0,2,0,1,2,0,0,0,0,0,0,0,290,0,No
7,4,7,0,1,3,0,0,0,0,0,0,0,637,0,No
13,7,13,8,1,3,4,4,0,0,3,26,61,637,0,No
2,1,2,0,0,4,0,0,0,0,0,0,0,1610,0,No
0,0,0,0,1,1,0,0,0,0,0,0,0,289,16,No
5,3,5,0,1,3,0,0,0,0,0,0,0,637,1,No
5,1,5,0,0,4,0,0,0,0,0,0,0,632,0,No
7,3,7,0,3,3,0,0,0,0,0,0,0,633,0,No
13,5,13,0,2,3,0,0,0,0,0,0,0,636,0,No
11,8,11,0,0,3,0,0,0,0,0,0,0,636,0,No
17,6,17,0,2,4,0,0,0,0,0,0,0,638,0,No
5,3,5,0,0,3,0,0,0,0,0,0,0,632,0,No
6,1,6,66,0,4,39,39,12,12,3,26,61,632,0,No
16,11,16,0,3,4,0,0,0,0,0,0,0,633,0,No
7,2,7,31,1,7,29,29,27,27,3,26,61,1610,0,No
18,10,18,0,3,6,0,0,0,0,0,0,0,638,0,No
6,2,6,0,1,6,0,0,0,0,0,0,0,1610,1,No
4,2,4,0,1,4,0,0,0,0,0,0,0,637,0,No
6,0,8,0,0,7,0,0,0,0,0,0,0,1577,0,No
10,1,14,0,0,4,0,0,0,0,0,0,0,1448,0,No
8,2,8,0,0,4,0,0,0,0,0,0,0,1610,0,No
2,1,2,0,0,4,0,0,0,0,0,0,0,1610,0,No
3,0,7,0,0,5,0,0,0,0,0,0,0,1610,0,No
15,2,15,0,0,5,0,0,0,0,0,0,0,1171,0,No
9,1,11,0,0,2,0,0,0,0,0,0,0,434,0,No
9,1,13,0,0,6,0,0,0,0,0,0,0,1448,0,No
3,2,3,0,0,4,0,0,0,0,0,0,0,1610,0,No
5,1,5,0,0,5,0,0,0,0,0,0,0,1610,0,No
0,0,0,0,0,1,0,0,0,0,0,0,0,272,0,No
11,2,11,0,0,4,0,0,0,0,0,0,0,1548,0,No
3,1,3,0,0,4,0,0,0,0,0,0,0,1610,2,No
19,3,21,0,0,7,0,0,0,0,0,0,0,1550,0,No
2,0,3,0,1,6,0,0,0,0,0,0,0,986,0,No
10,1,10,2,0,1,2,2,2,2,3,26,61,310,0,No
2,0,2,0,0,4,0,0,0,0,0,0,0,1567,0,No
7,2,8,0,2,2,0,0,0,0,0,0,0,331,0,No
4,2,4,0,0,4,0,0,0,0,0,0,0,1610,0,No
16,3,16,0,0,6,0,0,0,0,0,0,0,1555,0,No
10,2,23,0,1,5,0,0,0,0,0,0,0,690,1,No
4,0,4,0,0,5,0,0,0,0,0,0,0,1610,0,No
26,3,26,0,0,7,0,0,0,0,0,0,0,1067,0,No
13,1,13,0,0,6,0,0,0,0,0,0,0,1060,0,No
2,2,2,0,0,4,0,0,0,0,0,0,0,1610,0,No
10,3,10,0,0,1,0,0,0,0,0,0,0,133,1,No
18,3,18,0,0,4,0,0,0,0,0,0,0,1448,0,No
4,0,4,0,0,2,0,0,0,0,0,0,0,272,0,No
2,0,2,0,0,4,0,0,0,0,0,0,0,1171,0,No
18,2,26,0,0,5,0,0,0,0,0,0,0,965,0,No
40,3,40,0,1,5,0,0,0,0,0,0,0,1546,0,No
35,0,39,0,1,5,0,0,0,0,0,0,0,1539,0,No
12,0,16,0,0,5,0,0,0,0,0,0,0,1610,0,No
24,2,25,0,0,6,0,0,0,0,0,0,0,1610,0,No
4,1,4,29,0,4,14,14,-1,0,3,26,61,1610,0,No
2,2,2,0,0,4,0,0,0,0,0,0,0,1610,0,No
6,0,6,0,0,5,0,0,0,0,0,0,0,1171,0,No
2,0,2,0,0,4,0,0,0,0,0,0,0,1448,0,No
24,0,30,20,0,6,20,20,20,20,3,26,61,1577,1,No
2,0,2,0,0,5,0,0,0,0,0,0,0,1610,0,No
17,2,17,0,0,4,0,0,0,0,0,0,0,1073,0,No
20,2,27,0,0,6,0,0,0,0,0,0,0,1073,3,No
0,1,0,0,0,0,0,0,0,0,0,0,0,0,0,No
0,1,0,0,0,4,0,0,0,0,0,0,0,1571,1,No
18,1,22,0,0,5,0,0,0,0,0,0,0,1571,0,No
0,0,0,0,0,5,0,0,0,0,0,0,0,1571,0,No
2,0,4,0,0,4,0,0,0,0,0,0,0,1610,3,No
1,0,1,0,2,5,0,0,0,0,0,0,0,1610,1,No
7,4,10,0,2,3,0,0,0,0,0,0,0,924,0,No
2,0,2,0,0,6,0,0,0,0,0,0,0,1571,0,No
4,0,7,1,0,2,1,1,1,1,3,26,61,339,1,No
1,0,1,0,0,6,0,0,0,0,0,0,0,1571,1,No
16,1,18,0,0,5,0,0,0,0,0,0,0,1610,1,No
6,1,6,0,0,4,0,0,0,0,0,0,0,1610,1,Yes
1,0,1,0,0,4,0,0,0,0,0,0,0,1571,0,No
0,0,0,0,0,5,0,0,0,0,0,0,0,1571,0,No
2,0,2,0,2,3,0,0,0,0,0,0,0,897,0,No
5,0,18,0,2,7,0,0,0,0,0,0,0,1571,9,No
2,0,2,0,0,4,0,0,0,0,0,0,0,1571,0,No
1,0,1,0,0,5,0,0,0,0,0,0,0,1571,0,No
0,0,0,0,1,3,0,0,0,0,0,0,0,591,0,No
0,0,0,0,0,5,0,0,0,0,0,0,0,1571,0,No
46,1,50,0,0,7,0,0,0,0,0,0,0,1140,0,No
2,0,2,0,0,6,0,0,0,0,0,0,0,1571,1,No
2,0,5,0,0,5,0,0,0,0,0,0,0,1171,1,No
0,0,0,0,0,4,0,0,0,0,0,0,0,1571,0,No
2,0,3,0,0,5,0,0,0,0,0,0,0,1571,1,No
0,0,0,5,0,5,5,5,5,5,3,26,61,1171,0,No
0,0,0,0,0,4,0,0,0,0,0,0,0,1571,0,No
1,0,1,0,0,5,0,0,0,0,0,0,0,1571,1,No
0,0,0,0,0,5,0,0,0,0,0,0,0,1571,0,No
0,0,0,0,0,5,0,0,0,0,0,0,0,1571,0,No
0,0,0,0,1,6,0,0,0,0,0,0,0,1571,0,No
2,4,5,0,1,4,0,0,0,0,0,0,0,1171,3,No
1,0,2,0,0,5,0,0,0,0,0,0,0,1571,0,No
8,2,9,0,0,8,0,0,0,0,0,0,0,1571,0,No
2,0,5,0,0,6,0,0,0,0,0,0,0,1171,2,No
0,0,0,0,0,4,0,0,0,0,0,0,0,1571,0,No
0,0,0,0,0,5,0,0,0,0,0,0,0,1571,0,No
0,0,0,0,0,4,0,0,0,0,0,0,0,1171,0,No
2,0,2,0,0,0,0,0,0,0,0,0,0,0,0,No
0,1,0,0,0,4,0,0,0,0,0,0,0,1571,0,No
10,13,70,23,1,7,18,10,13,8,8,20,56,1053,0,No
4,0,23,0,0,1,0,0,0,0,0,0,0,433,4,No
5,4,10,0,2,4,0,0,0,0,0,0,0,622,1,No
2,4,19,0,2,2,0,0,0,0,0,0,0,331,2,No
3,1,4,0,0,1,0,0,0,0,0,0,0,272,1,No
0,0,0,0,0,1,0,0,0,0,0,0,0,272,0,No
0,0,0,0,0,1,0,0,0,0,0,0,0,272,0,No
0,0,0,0,0,1,0,0,0,0,0,0,0,272,0,No
0,0,0,0,0,1,0,0,0,0,0,0,0,272,0,No
0,0,0,0,0,1,0,0,0,0,0,0,0,272,0,No
0,0,0,0,0,2,0,0,0,0,0,0,0,272,0,No
0,0,0,0,0,1,0,0,0,0,0,0,0,272,0,No
0,0,0,0,0,1,0,0,0,0,0,0,0,272,0,No
0,0,0,0,1,6,0,0,0,0,0,0,0,1571,0,No
0,0,0,0,0,1,0,0,0,0,0,0,0,272,0,No
0,0,0,0,0,1,0,0,0,0,0,0,0,272,0,No
0,1,0,0,0,1,0,0,0,0,0,0,0,272,0,No
14,20,27,0,1,6,0,0,0,0,0,0,0,1571,0,Yes
1,2,8,0,1,3,0,0,0,0,0,0,0,1434,1,No
22,3,28,7,3,8,7,7,7,7,4,10,35,1571,0,No
1,0,1,0,0,1,0,0,0,0,0,0,0,360,0,No
4,2,10,0,2,7,0,0,0,0,0,0,0,1063,2,No
3,0,3,0,0,2,0,0,0,0,0,0,0,772,0,No
0,0,0,0,0,3,0,0,0,0,0,0,0,503,0,No
0,0,0,0,0,2,0,0,0,0,0,0,0,503,0,No
0,0,0,2,0,4,2,2,2,2,4,10,21,1571,0,No
3,1,4,0,0,5,0,0,0,0,0,0,0,1171,2,No
6,0,9,0,0,4,0,0,0,0,0,0,0,952,0,No
3,0,3,0,0,2,0,0,0,0,0,0,0,609,1,No
2,0,2,0,0,5,0,0,0,0,0,0,0,1171,0,No
10,0,20,2,3,6,1,1,0,0,1,2,2,1325,2,No
7,2,12,0,0,4,0,0,0,0,0,0,0,1330,1,No
1,1,4,0,0,3,0,0,0,0,0,0,0,1610,1,No
1,6,3,0,1,4,0,0,0,0,0,0,0,1240,0,No
2,0,3,0,0,3,0,0,0,0,0,0,0,1610,0,No
7,0,12,0,0,5,0,0,0,0,0,0,0,1170,1,No
2,3,12,0,2,6,0,0,0,0,0,0,0,1288,2,No
2,0,7,0,1,5,0,0,0,0,0,0,0,1290,0,No
2,0,7,0,0,6,0,0,0,0,0,0,0,1399,0,No
5,1,5,0,0,1,0,0,0,0,0,0,0,337,0,No
3,2,3,0,0,4,0,0,0,0,0,0,0,1610,0,No
2,0,2,0,0,5,0,0,0,0,0,0,0,1571,1,No
12,3,12,0,0,4,0,0,0,0,0,0,0,1610,0,No
14,10,52,0,0,5,0,0,0,0,0,0,0,953,3,No
2,0,6,0,0,1,0,0,0,0,0,0,0,94,0,No
3,3,6,0,0,1,0,0,0,0,0,0,0,94,2,No
1,0,1,0,1,7,0,0,0,0,0,0,0,1610,0,No
8,3,28,0,0,4,0,0,0,0,0,0,0,952,1,No
2,0,4,0,0,1,0,0,0,0,0,0,0,609,0,No
4,12,4,0,1,6,0,0,0,0,0,0,0,1571,0,Yes
4,6,6,0,1,7,0,0,0,0,0,0,0,1170,1,No
2,2,2,0,0,5,0,0,0,0,0,0,0,1240,0,No
0,0,0,0,0,2,0,0,0,0,0,0,0,360,0,No
8,8,9,0,1,8,0,0,0,0,0,0,0,1170,0,No
0,0,0,0,0,4,0,0,0,0,0,0,0,1571,0,No
10,12,29,0,5,6,0,0,0,0,0,0,0,1070,2,No
0,1,0,0,1,5,0,0,0,0,0,0,0,1571,0,No
6,2,10,0,2,8,0,0,0,0,0,0,0,1571,2,No
0,0,0,0,1,5,0,0,0,0,0,0,0,1571,0,No
6,6,7,0,3,3,0,0,0,0,0,0,0,569,1,Yes
4,2,4,0,0,3,0,0,0,0,0,0,0,569,0,No
37,24,65,192,6,8,184,184,176,176,4,10,35,1571,16,Yes
4,4,5,201,0,1,152,124,103,124,5,12,28,10,2,No
3,5,13,0,0,2,0,0,0,0,0,0,0,575,0,No
14,17,51,0,6,8,0,0,0,0,0,0,0,1546,3,Yes
4,6,12,0,3,7,0,0,0,0,0,0,0,1546,1,No
11,4,12,0,3,7,0,0,0,0,0,0,0,1519,1,No
2,9,5,9,6,6,7,7,5,5,4,10,35,965,1,Yes
0,0,0,0,1,3,0,0,0,0,0,0,0,1571,0,No
0,0,0,0,0,3,0,0,0,0,0,0,0,1171,0,No
0,0,0,0,0,1,0,0,0,0,0,0,0,440,0,No
0,0,0,0,0,3,0,0,0,0,0,0,0,1571,0,No
0,1,0,0,0,2,0,0,0,0,0,0,0,612,2,No
17,10,19,172,7,8,144,72,116,58,9,22,63,1570,3,No
0,1,0,0,0,5,0,0,0,0,0,0,0,1569,0,No
4,6,4,0,4,8,0,0,0,0,0,0,0,1519,2,No
13,16,37,12,8,8,9,9,6,6,4,10,35,1060,5,Yes
0,3,0,0,1,6,0,0,0,0,0,0,0,1060,0,No
23,20,49,0,5,8,0,0,0,0,0,0,0,1070,7,No
0,2,0,0,1,4,0,0,0,0,0,0,0,1240,0,No
7,17,14,0,1,3,0,0,0,0,0,0,0,360,5,No
5,8,8,0,0,2,0,0,0,0,0,0,0,104,0,No
3,3,3,0,0,4,0,0,0,0,0,0,0,952,0,No
39,19,75,0,5,8,0,0,0,0,0,0,0,952,3,No
12,17,73,0,4,7,0,0,0,0,0,0,0,940,3,Yes
19,17,44,0,10,9,0,0,0,0,0,0,0,1571,6,No
5,5,7,140,0,1,135,124,130,124,5,12,28,10,5,Yes
5,9,18,0,8,8,0,0,0,0,0,0,0,1540,3,Yes
40,15,51,0,8,8,0,0,0,0,0,0,0,1571,17,No
13,11,37,14,1,6,5,5,-4,0,4,10,21,953,3,No
5,5,9,0,6,8,0,0,0,0,0,0,0,1519,1,Yes
4,5,6,0,0,4,0,0,0,0,0,0,0,703,1,No
1,2,1,0,0,5,0,0,0,0,0,0,0,1240,0,No
8,8,13,0,5,8,0,0,0,0,0,0,0,1571,5,No
2,2,3,0,0,7,0,0,0,0,0,0,0,1170,0,No
19,14,35,0,5,8,0,0,0,0,0,0,0,1564,2,No
11,12,55,0,3,9,0,0,0,0,0,0,0,1546,5,Yes
3,6,5,79,1,8,33,33,-13,0,4,10,35,1240,2,No
20,16,59,0,1,8,0,0,0,0,0,0,0,979,11,No
2,5,3,0,1,8,0,0,0,0,0,0,0,1170,0,No
11,14,19,0,6,8,0,0,0,0,0,0,0,1435,2,No
11,13,17,0,5,8,0,0,0,0,0,0,0,1571,1,No
10,10,12,0,4,8,0,0,0,0,0,0,0,1070,3,No
10,9,20,4,6,8,3,3,2,2,4,10,35,1519,2,No
3,4,4,0,0,5,0,0,0,0,0,0,0,703,1,No
2,4,4,1,0,6,0,0,-1,0,1,2,7,1240,0,No
2,2,2,0,0,5,0,0,0,0,0,0,0,1240,0,No
7,9,10,0,6,8,0,0,0,0,0,0,0,1571,4,No
2,1,2,0,0,5,0,0,0,0,0,0,0,1240,0,No
4,6,12,0,1,8,0,0,0,0,0,0,0,1240,1,No
2,3,2,0,0,6,0,0,0,0,0,0,0,1571,0,No
2,4,3,0,2,2,0,0,0,0,0,0,0,314,2,No
12,12,61,0,2,4,0,0,0,0,0,0,0,651,1,No
17,8,23,0,7,8,0,0,0,0,0,0,0,1063,1,No
6,10,12,0,0,1,0,0,0,0,0,0,0,104,0,No
0,3,0,0,1,3,0,0,0,0,0,0,0,503,0,No
0,3,0,0,0,6,0,0,0,0,0,0,0,965,0,No
10,6,10,0,0,1,0,0,0,0,0,0,0,360,0,No
4,8,5,0,3,3,0,0,0,0,0,0,0,569,1,No
6,8,17,0,0,1,0,0,0,0,0,0,0,357,1,No
10,23,56,0,3,7,0,0,0,0,0,0,0,1155,3,Yes
9,0,11,0,0,0,0,0,0,0,0,0,0,0,2,No
9,11,19,0,2,6,0,0,0,0,0,0,0,1238,1,No
8,4,19,0,2,2,0,0,0,0,0,0,0,331,3,No
1,0,1,0,0,1,0,0,0,0,0,0,0,360,0,No
2,0,2,0,0,4,0,0,0,0,0,0,0,1571,0,No
21,11,46,0,4,3,0,0,0,0,0,0,0,331,1,No
11,13,33,0,6,7,0,0,0,0,0,0,0,1155,0,No
3,1,7,0,1,2,0,0,0,0,0,0,0,149,0,No
11,10,23,0,3,8,0,0,0,0,0,0,0,1571,6,No
15,16,25,0,3,8,0,0,0,0,0,0,0,1121,5,No
14,16,31,0,2,7,0,0,0,0,0,0,0,1127,1,No
12,12,24,0,3,8,0,0,0,0,0,0,0,1571,6,No
9,10,21,0,0,2,0,0,0,0,0,0,0,104,6,No
7,15,28,0,3,7,0,0,0,0,0,0,0,965,2,Yes
11,11,14,0,1,7,0,0,0,0,0,0,0,965,2,No
19,20,94,0,10,9,0,0,0,0,0,0,0,965,2,No
5,5,15,0,0,7,0,0,0,0,0,0,0,1079,1,No
6,13,18,0,2,8,0,0,0,0,0,0,0,1155,2,No
20,13,40,0,5,4,0,0,0,0,0,0,0,703,3,No
6,7,6,0,3,7,0,0,0,0,0,0,0,1056,3,No
7,3,7,0,1,4,0,0,0,0,0,0,0,651,1,No
11,11,15,0,5,5,0,0,0,0,0,0,0,651,1,No
6,7,11,0,0,7,0,0,0,0,0,0,0,1079,1,No
7,7,7,0,0,5,0,0,0,0,0,0,0,1056,5,Yes
9,14,10,0,2,7,0,0,0,0,0,0,0,1056,4,Yes
13,12,27,0,3,8,0,0,0,0,0,0,0,1571,6,No
13,0,13,0,0,0,0,0,0,0,0,0,0,0,0,No
22,1,68,0,1,3,0,0,0,0,0,0,0,651,3,No
3,6,4,102,0,1,100,96,98,96,8,20,56,10,1,No
3,5,4,0,2,5,0,0,0,0,0,0,0,703,0,No
10,1,14,0,2,2,0,0,0,0,0,0,0,331,0,No
8,16,17,0,1,7,0,0,0,0,0,0,0,965,3,No
13,11,25,0,0,2,0,0,0,0,0,0,0,104,6,No
0,3,0,0,0,6,0,0,0,0,0,0,0,965,0,No
1,7,2,0,2,7,0,0,0,0,0,0,0,1067,2,No
7,5,9,0,1,6,0,0,0,0,0,0,0,1571,1,No
16,20,34,0,8,5,0,0,0,0,0,0,0,651,2,No
12,14,34,0,2,6,0,0,0,0,0,0,0,1238,1,No
0,0,0,0,0,5,0,0,0,0,0,0,0,1171,1,No
2,2,5,0,0,1,0,0,0,0,0,0,0,94,0,No
1,1,2,0,0,1,0,0,0,0,0,0,0,94,0,No
2,0,7,0,0,1,0,0,0,0,0,0,0,314,2,No
2,1,2,2,1,1,2,2,2,2,1,2,2,314,0,No
1,1,5,0,0,1,0,0,0,0,0,0,0,314,0,No
7,4,7,0,3,6,0,0,0,0,0,0,0,1610,2,No
3,2,3,0,2,6,0,0,0,0,0,0,0,1070,0,No
2,2,2,0,1,5,0,0,0,0,0,0,0,1367,0,No
5,3,7,0,1,5,0,0,0,0,0,0,0,1610,0,No
6,5,6,9,0,6,9,9,9,9,4,10,35,1519,0,Yes
14,13,28,0,3,6,0,0,0,0,0,0,0,1546,1,No
2,0,2,0,0,4,0,0,0,0,0,0,0,1571,0,No
0,0,0,0,0,5,0,0,0,0,0,0,0,1571,1,No
8,7,11,0,1,6,0,0,0,0,0,0,0,1519,0,No
5,2,5,17,1,6,4,4,-9,0,4,10,35,1060,0,No
7,4,14,0,4,7,0,0,0,0,0,0,0,1127,1,No
11,5,13,0,2,6,0,0,0,0,0,0,0,952,0,No
8,11,12,0,0,6,0,0,0,0,0,0,0,1540,0,No
17,14,17,2,3,7,1,1,0,0,1,1,1,1540,0,Yes
20,11,35,0,2,8,0,0,0,0,0,0,0,1610,0,No
5,2,5,51,0,1,51,51,51,51,4,10,35,10,0,No
18,15,26,0,2,8,0,0,0,0,0,0,0,1435,0,No
18,17,19,0,3,8,0,0,0,0,0,0,0,1561,0,No
9,5,15,22,0,2,22,22,22,22,4,10,35,330,3,No
5,5,8,0,0,6,0,0,0,0,0,0,0,1367,1,No
4,0,4,0,0,1,0,0,0,0,0,0,0,952,0,No
3,1,5,0,1,2,0,0,0,0,0,0,0,591,0,No
3,1,5,0,1,4,0,0,0,0,0,0,0,1290,0,No
2,0,2,0,1,4,0,0,0,0,0,0,0,1290,0,No
4,1,4,0,1,5,0,0,0,0,0,0,0,1060,1,No
3,2,6,0,0,2,0,0,0,0,0,0,0,569,0,No
1,2,10,0,1,4,0,0,0,0,0,0,0,1057,0,No
0,0,0,0,0,4,0,0,0,0,0,0,0,1571,0,No
0,1,0,0,0,4,0,0,0,0,0,0,0,1571,0,No
3,0,3,0,0,5,0,0,0,0,0,0,0,1060,0,No
1,0,2,0,1,4,0,0,0,0,0,0,0,1571,0,No
1,0,2,0,1,5,0,0,0,0,0,0,0,1060,0,No
1,1,2,0,0,4,0,0,0,0,0,0,0,1060,0,No
1,2,3,0,0,4,0,0,0,0,0,0,0,1060,0,No
1,0,1,0,0,4,0,0,0,0,0,0,0,1571,0,No
5,0,5,0,1,5,0,0,0,0,0,0,0,1610,3,No
32,3,82,0,2,5,0,0,0,0,0,0,0,979,0,No
8,1,25,0,2,8,0,0,0,0,0,0,0,1519,0,No
2,1,2,0,0,3,0,0,0,0,0,0,0,1329,0,No
5,1,5,0,3,8,0,0,0,0,0,0,0,1519,1,No
3,1,3,0,1,5,0,0,0,0,0,0,0,1127,0,No
2,1,3,0,1,5,0,0,0,0,0,0,0,1519,0,No
5,1,8,0,3,8,0,0,0,0,0,0,0,1519,1,No
8,5,16,0,0,2,0,0,0,0,0,0,0,105,4,No
1,0,1,0,0,4,0,0,0,0,0,0,0,1571,0,No
6,1,28,0,1,7,0,0,0,0,0,0,0,1127,0,No
4,1,5,0,1,8,0,0,0,0,0,0,0,1127,3,No
9,1,26,0,2,9,0,0,0,0,0,0,0,1127,6,No
20,0,34,0,4,7,0,0,0,0,0,0,0,1127,0,No
0,0,0,0,0,3,0,0,0,0,0,0,0,1571,0,No
5,1,9,0,0,1,0,0,0,0,0,0,0,129,0,No
9,1,14,11,1,6,10,10,9,9,2,2,2,1127,1,Yes
1,0,1,0,2,1,0,0,0,0,0,0,0,601,0,No
9,0,30,0,0,3,0,0,0,0,0,0,0,940,1,No
8,1,47,0,1,1,0,0,0,0,0,0,0,310,2,No
1,0,1,0,0,5,0,0,0,0,0,0,0,1571,0,No
1,1,5,0,0,1,0,0,0,0,0,0,0,94,0,No
2,1,2,0,0,1,0,0,0,0,0,0,0,94,0,No
1,0,1,0,0,5,0,0,0,0,0,0,0,1571,0,No
16,1,20,0,0,3,0,0,0,0,0,0,0,654,4,No
1,0,1,0,0,5,0,0,0,0,0,0,0,1171,0,No
6,4,7,0,0,4,0,0,0,0,0,0,0,1056,0,No
1,1,1,0,0,4,0,0,0,0,0,0,0,1171,0,No
2,0,2,0,0,3,0,0,0,0,0,0,0,562,0,No
19,62,78,22,0,1,15,15,8,8,1,1,1,51,19,No
4,0,8,0,0,2,0,0,0,0,0,0,0,51,4,No
2,0,4,0,0,2,0,0,0,0,0,0,0,93,0,No
1,0,2,0,0,2,0,0,0,0,0,0,0,51,1,No
1,0,2,0,0,1,0,0,0,0,0,0,0,380,1,No
1,6,14,0,1,3,0,0,0,0,0,0,0,932,2,No
15,45,151,0,9,9,0,0,0,0,0,0,0,944,8,No
3,2,13,0,0,1,0,0,0,0,0,0,0,310,0,No
10,9,84,0,1,5,0,0,0,0,0,0,0,709,1,No
7,11,13,0,2,7,0,0,0,0,0,0,0,1486,3,No
2,9,23,0,3,5,0,0,0,0,0,0,0,918,3,No
15,17,38,0,4,8,0,0,0,0,0,0,0,1163,5,No
1,5,10,0,1,5,0,0,0,0,0,0,0,973,0,No
1,2,1,0,1,6,0,0,0,0,0,0,0,1226,0,No
2,1,2,0,1,5,0,0,0,0,0,0,0,1171,0,No
5,3,11,0,1,3,0,0,0,0,0,0,0,626,1,No
5,9,29,24,6,6,17,10,10,10,6,29,64,1060,2,No
9,34,49,0,3,9,0,0,0,0,0,0,0,1060,5,No
7,0,19,0,0,1,0,0,0,0,0,0,0,357,2,No
1,2,2,0,0,2,0,0,0,0,0,0,0,434,0,No
11,3,16,0,0,6,0,0,0,0,0,0,0,1564,0,No
5,1,5,0,1,3,0,0,0,0,0,0,0,1610,0,No
2,0,2,0,0,3,0,0,0,0,0,0,0,1571,0,No
20,7,68,0,2,5,0,0,0,0,0,0,0,1599,0,No
19,0,37,0,1,4,0,0,0,0,0,0,0,1564,0,No
6,0,15,0,2,5,0,0,0,0,0,0,0,1610,1,No
5,1,5,0,2,6,0,0,0,0,0,0,0,1584,0,No
9,2,9,0,1,4,0,0,0,0,0,0,0,1567,1,No
8,0,13,0,0,5,0,0,0,0,0,0,0,965,0,No
12,5,19,0,0,3,0,0,0,0,0,0,0,690,9,No
17,2,24,0,0,5,0,0,0,0,0,0,0,1555,0,No
27,6,34,0,2,5,0,0,0,0,0,0,0,1597,3,No
2,0,2,0,2,5,0,0,0,0,0,0,0,1597,0,No
6,0,8,0,0,1,0,0,0,0,0,0,0,105,0,No
16,3,16,0,0,7,0,0,0,0,0,0,0,1171,0,No
8,1,12,0,0,2,0,0,0,0,0,0,0,434,1,No
8,0,11,0,0,5,0,0,0,0,0,0,0,1245,0,No
8,2,8,0,1,5,0,0,0,0,0,0,0,1567,1,No
5,1,7,0,0,5,0,0,0,0,0,0,0,1564,0,No
25,4,33,0,0,5,0,0,0,0,0,0,0,1575,0,No
10,0,10,0,0,1,0,0,0,0,0,0,0,310,0,No
4,0,4,0,0,4,0,0,0,0,0,0,0,1599,0,No
41,7,47,0,0,6,0,0,0,0,0,0,0,1555,0,No
31,3,39,0,2,6,0,0,0,0,0,0,0,1067,0,No
16,1,17,0,0,5,0,0,0,0,0,0,0,1060,0,No
0,1,0,0,0,4,0,0,0,0,0,0,0,1564,0,No
6,4,6,0,2,5,0,0,0,0,0,0,0,1140,0,No
18,5,19,0,0,5,0,0,0,0,0,0,0,1448,0,No
0,1,0,0,0,5,0,0,0,0,0,0,0,1564,0,No
4,1,4,0,0,4,0,0,0,0,0,0,0,1571,0,No
13,2,27,0,0,4,0,0,0,0,0,0,0,965,1,No
6,1,8,0,0,4,0,0,0,0,0,0,0,965,0,No
5,2,7,0,0,4,0,0,0,0,0,0,0,965,0,No
8,1,8,0,0,5,0,0,0,0,0,0,0,1171,0,No
3,0,3,29,0,4,18,18,7,7,3,26,61,1564,0,No
0,1,0,0,0,5,0,0,0,0,0,0,0,1564,0,No
6,4,8,0,1,7,0,0,0,0,0,0,0,1171,0,No
6,2,6,0,0,4,0,0,0,0,0,0,0,1599,0,No
5,0,10,0,0,4,0,0,0,0,0,0,0,1448,0,No
4,0,4,0,0,3,0,0,0,0,0,0,0,1448,0,No
10,4,14,0,0,5,0,0,0,0,0,0,0,1564,0,No
5,3,7,0,0,5,0,0,0,0,0,0,0,1406,0,No
3,2,4,0,0,5,0,0,0,0,0,0,0,1610,0,No
0,1,0,0,1,4,0,0,0,0,0,0,0,1564,0,No
14,4,18,0,0,1,0,0,0,0,0,0,0,100,0,No
11,4,16,0,0,5,0,0,0,0,0,0,0,1564,0,Yes
4,2,4,0,0,4,0,0,0,0,0,0,0,1564,0,No
5,3,7,0,0,5,0,0,0,0,0,0,0,1406,0,No
3,2,4,0,0,5,0,0,0,0,0,0,0,1610,0,No
5,3,7,0,0,5,0,0,0,0,0,0,0,1564,0,No
4,2,4,0,0,4,0,0,0,0,0,0,0,1564,0,No
0,1,0,0,0,4,0,0,0,0,0,0,0,1564,0,No
0,1,0,0,0,4,0,0,0,0,0,0,0,1564,0,No
5,3,7,0,1,7,0,0,0,0,0,0,0,1564,0,No
4,2,4,0,0,4,0,0,0,0,0,0,0,1564,0,No
0,1,0,0,0,4,0,0,0,0,0,0,0,1564,0,No
18,6,43,0,0,6,0,0,0,0,0,0,0,1534,0,No
0,0,0,0,0,3,0,0,0,0,0,0,0,1571,0,No
11,4,16,0,0,5,0,0,0,0,0,0,0,1564,0,Yes
4,1,4,0,0,5,0,0,0,0,0,0,0,1610,0,No
5,3,7,0,0,5,0,0,0,0,0,0,0,1406,0,No
3,2,4,0,0,5,0,0,0,0,0,0,0,1610,0,No
5,3,7,0,0,5,0,0,0,0,0,0,0,1564,0,No
4,1,4,0,0,5,0,0,0,0,0,0,0,1610,0,No
0,1,0,0,0,4,0,0,0,0,0,0,0,1564,0,No
8,3,19,0,0,2,0,0,0,0,0,0,0,690,1,No
3,2,5,0,0,5,0,0,0,0,0,0,0,1610,0,No
0,1,0,0,0,4,0,0,0,0,0,0,0,1564,0,No
5,3,7,0,0,6,0,0,0,0,0,0,0,1564,0,No
4,1,4,0,0,5,0,0,0,0,0,0,0,1610,0,No
0,1,0,0,0,4,0,0,0,0,0,0,0,1564,0,No
51,18,95,72,1,5,29,29,-14,0,1,4,4,1564,0,No
57,12,96,33,5,10,29,29,25,25,3,26,61,1564,1,No
10,4,14,0,0,5,0,0,0,0,0,0,0,1564,0,Yes
5,3,7,0,0,5,0,0,0,0,0,0,0,1406,0,No
3,2,4,0,0,5,0,0,0,0,0,0,0,1610,0,No
4,3,5,0,0,5,0,0,0,0,0,0,0,1564,0,No
0,1,0,0,1,4,0,0,0,0,0,0,0,1564,0,No
10,3,23,0,0,2,0,0,0,0,0,0,0,690,1,No
3,2,5,0,0,5,0,0,0,0,0,0,0,1610,0,No
0,1,0,0,1,4,0,0,0,0,0,0,0,1564,0,No
4,3,5,0,0,6,0,0,0,0,0,0,0,1564,0,No
0,1,0,0,1,4,0,0,0,0,0,0,0,1564,0,No
3,1,3,0,0,4,0,0,0,0,0,0,0,1610,0,No
4,2,4,0,0,4,0,0,0,0,0,0,0,1610,0,No
5,2,5,0,0,4,0,0,0,0,0,0,0,1610,0,No
5,2,5,0,0,4,0,0,0,0,0,0,0,1610,0,No
4,2,4,0,0,4,0,0,0,0,0,0,0,1610,0,No
2,1,2,0,0,5,0,0,0,0,0,0,0,1571,0,No
4,1,4,0,0,3,0,0,0,0,0,0,0,1571,0,No
5,2,5,0,0,4,0,0,0,0,0,0,0,1610,0,No
5,4,5,0,0,4,0,0,0,0,0,0,0,1610,0,No
6,3,6,0,0,4,0,0,0,0,0,0,0,1610,0,No
5,3,5,0,0,4,0,0,0,0,0,0,0,1610,0,No
5,4,5,0,0,4,0,0,0,0,0,0,0,1610,0,No
0,0,0,0,0,5,0,0,0,0,0,0,0,1571,0,No
4,2,4,0,0,4,0,0,0,0,0,0,0,1171,0,No
9,6,9,0,1,5,0,0,0,0,0,0,0,1571,0,No
7,3,7,0,1,4,0,0,0,0,0,0,0,1610,0,No
7,3,7,0,0,4,0,0,0,0,0,0,0,1610,0,No
8,6,8,0,0,4,0,0,0,0,0,0,0,1610,0,No
22,9,22,0,1,6,0,0,0,0,0,0,0,1610,0,No
5,4,5,0,0,4,0,0,0,0,0,0,0,1610,0,No
4,2,4,12,0,4,6,6,0,0,3,26,61,1610,0,No
4,4,4,0,0,6,0,0,0,0,0,0,0,1610,0,No
5,4,5,0,1,6,0,0,0,0,0,0,0,1610,0,No
10,4,10,0,1,4,0,0,0,0,0,0,0,1610,0,No
8,3,8,0,0,4,0,0,0,0,0,0,0,1610,0,No
15,6,15,6,1,6,6,6,6,6,3,26,61,1610,0,No
5,2,5,0,0,4,0,0,0,0,0,0,0,1610,0,No
5,4,5,0,0,4,0,0,0,0,0,0,0,1610,0,No
2,1,6,2,2,8,1,1,0,0,1,1,1,1567,2,No
9,3,17,0,2,4,0,0,0,0,0,0,0,1610,2,No
9,10,54,0,1,9,0,0,0,0,0,0,0,1354,3,No
3,2,5,0,0,4,0,0,0,0,0,0,0,1599,0,No
4,3,6,0,0,1,0,0,0,0,0,0,0,357,0,No
5,2,7,0,0,4,0,0,0,0,0,0,0,1599,0,Yes
5,7,8,0,0,4,0,0,0,0,0,0,0,1599,0,Yes
4,6,9,0,0,5,0,0,0,0,0,0,0,1599,0,No
2,3,6,0,1,7,0,0,0,0,0,0,0,1567,2,No
5,2,7,0,0,4,0,0,0,0,0,0,0,1599,0,No
5,10,11,0,0,4,0,0,0,0,0,0,0,1599,0,No
6,5,9,0,0,4,0,0,0,0,0,0,0,1599,0,No
5,4,8,0,0,4,0,0,0,0,0,0,0,973,0,No
5,5,7,0,0,5,0,0,0,0,0,0,0,1534,0,No
4,3,4,0,0,4,0,0,0,0,0,0,0,1067,0,No
1,0,6,0,2,6,0,0,0,0,0,0,0,1610,0,No
9,9,27,0,0,5,0,0,0,0,0,0,0,1140,0,No
7,4,10,0,2,4,0,0,0,0,0,0,0,965,0,No
8,4,12,0,0,4,0,0,0,0,0,0,0,965,0,No
9,19,33,0,0,7,0,0,0,0,0,0,0,1555,0,No
30,36,89,0,2,7,0,0,0,0,0,0,0,1599,0,No
5,12,13,0,0,4,0,0,0,0,0,0,0,1599,0,No
11,2,19,0,1,1,0,0,0,0,0,0,0,289,1,No
4,5,6,70,0,1,70,70,70,70,3,26,61,13,0,No
20,17,116,0,5,7,0,0,0,0,0,0,0,1610,10,No
11,8,22,0,2,5,0,0,0,0,0,0,0,1599,0,No
9,7,14,0,0,4,0,0,0,0,0,0,0,1599,0,No
18,18,25,30,2,9,28,28,26,26,3,26,61,1354,0,No
5,2,7,0,0,4,0,0,0,0,0,0,0,1599,0,No
5,10,11,0,0,4,0,0,0,0,0,0,0,1599,0,No
4,0,4,0,0,1,0,0,0,0,0,0,0,58,0,No
7,0,11,0,0,1,0,0,0,0,0,0,0,58,0,No
3,0,3,0,0,1,0,0,0,0,0,0,0,58,0,No
3,0,3,0,0,1,0,0,0,0,0,0,0,58,1,No
7,0,8,0,1,1,0,0,0,0,0,0,0,289,0,No
3,0,3,0,0,1,0,0,0,0,0,0,0,58,0,No
30,0,55,0,0,1,0,0,0,0,0,0,0,100,1,No
0,0,0,0,0,1,0,0,0,0,0,0,0,100,1,No
0,0,0,0,0,0,0,0,0,0,0,0,0,0,0,No
2,2,2,0,0,4,0,0,0,0,0,0,0,1581,0,No
1,2,2,0,0,5,0,0,0,0,0,0,0,1610,0,No
1,4,6,0,0,6,0,0,0,0,0,0,0,1610,0,No
1,3,2,0,1,5,0,0,0,0,0,0,0,1581,0,No
0,1,0,0,0,5,0,0,0,0,0,0,0,1610,0,No
0,0,0,0,0,3,0,0,0,0,0,0,0,1610,0,No
1,1,1,0,0,3,0,0,0,0,0,0,0,1581,0,No
0,0,0,0,0,4,0,0,0,0,0,0,0,1406,0,No
1,6,10,0,2,9,0,0,0,0,0,0,0,1165,1,No
2,1,2,0,3,4,0,0,0,0,0,0,0,1610,0,No
0,0,0,0,0,4,0,0,0,0,0,0,0,1406,0,No
1,2,7,0,2,5,0,0,0,0,0,0,0,1406,1,No
0,0,0,0,0,4,0,0,0,0,0,0,0,1406,0,No
1,4,11,0,2,5,0,0,0,0,0,0,0,1406,2,No
0,0,0,0,0,4,0,0,0,0,0,0,0,1406,0,No
1,4,5,0,2,3,0,0,0,0,0,0,0,707,1,No
1,1,2,0,0,4,0,0,0,0,0,0,0,1406,0,No
0,0,0,0,0,4,0,0,0,0,0,0,0,1406,0,No
3,5,20,0,2,7,0,0,0,0,0,0,0,1406,1,No
4,1,7,0,2,5,0,0,0,0,0,0,0,1406,0,No
0,0,0,0,0,4,0,0,0,0,0,0,0,1171,0,No
1,3,5,0,2,5,0,0,0,0,0,0,0,1067,0,No
0,0,0,0,0,4,0,0,0,0,0,0,0,1406,0,No
1,8,7,0,3,6,0,0,0,0,0,0,0,1140,3,No
0,0,0,0,0,4,0,0,0,0,0,0,0,1171,0,No
1,4,9,0,2,5,0,0,0,0,0,0,0,1406,1,No
0,0,0,0,0,4,0,0,0,0,0,0,0,1171,0,No
1,3,5,0,2,5,0,0,0,0,0,0,0,1171,1,No
0,0,0,0,0,4,0,0,0,0,0,0,0,1171,0,No
1,2,7,0,2,8,0,0,0,0,0,0,0,1171,1,No
0,0,0,0,0,4,0,0,0,0,0,0,0,1406,0,No
0,0,0,0,1,4,0,0,0,0,0,0,0,1406,0,No
2,15,18,0,1,1,0,0,0,0,0,0,0,377,0,No
1,3,8,0,2,5,0,0,0,0,0,0,0,1406,0,No
0,0,0,0,0,4,0,0,0,0,0,0,0,1406,0,No
1,2,3,0,2,3,0,0,0,0,0,0,0,707,0,No
0,0,0,0,0,5,0,0,0,0,0,0,0,1406,0,No
3,14,24,0,2,8,0,0,0,0,0,0,0,1077,0,Yes
1,3,24,0,2,7,0,0,0,0,0,0,0,1070,0,No
0,0,0,0,0,4,0,0,0,0,0,0,0,1571,0,No
12,3,61,0,0,8,0,0,0,0,0,0,0,1127,0,No
0,0,0,0,0,4,0,0,0,0,0,0,0,1571,0,No
0,0,0,0,0,5,0,0,0,0,0,0,0,1571,0,No
1,2,1,0,0,4,0,0,0,0,0,0,0,1140,1,No
1,8,18,0,0,5,0,0,0,0,0,0,0,1140,1,No
0,0,0,0,0,1,0,0,0,0,0,0,0,709,1,No
1,1,1,0,1,6,0,0,0,0,0,0,0,1070,0,No
18,4,18,0,0,4,0,0,0,0,0,0,0,623,0,No
4,3,4,0,0,4,0,0,0,0,0,0,0,654,0,No
2,2,2,0,0,6,0,0,0,0,0,0,0,1171,2,No
2,2,2,0,0,5,0,0,0,0,0,0,0,1571,0,No
17,1,44,0,1,5,0,0,0,0,0,0,0,1525,0,No
1,0,1,0,1,4,0,0,0,0,0,0,0,1610,0,No
3,3,3,0,0,4,0,0,0,0,0,0,0,962,0,No
4,2,4,0,2,2,0,0,0,0,0,0,0,710,0,No
0,0,0,0,0,6,0,0,0,0,0,0,0,1571,0,No
11,25,65,0,4,6,0,0,0,0,0,0,0,710,8,No
12,0,22,0,0,2,0,0,0,0,0,0,0,617,2,No
23,12,102,0,0,8,0,0,0,0,0,0,0,1483,44,No
3,9,19,0,0,2,0,0,0,0,0,0,0,107,1,No
4,5,10,0,0,5,0,0,0,0,0,0,0,688,0,No
2,7,11,0,4,4,0,0,0,0,0,0,0,666,0,No
3,9,19,0,0,2,0,0,0,0,0,0,0,107,3,No
2,7,12,0,1,4,0,0,0,0,0,0,0,710,1,No
26,29,81,0,12,10,0,0,0,0,0,0,0,1548,1,No
0,0,0,0,0,3,0,0,0,0,0,0,0,1571,0,No
4,9,7,0,3,6,0,0,0,0,0,0,0,1163,1,No
1,0,1,0,1,3,0,0,0,0,0,0,0,1571,0,No
2,2,5,0,2,3,0,0,0,0,0,0,0,1171,2,No
3,1,12,0,0,4,0,0,0,0,0,0,0,1039,1,No
1,0,1,0,1,3,0,0,0,0,0,0,0,1571,0,No
0,0,0,0,0,3,0,0,0,0,0,0,0,1571,0,No
4,1,5,0,1,4,0,0,0,0,0,0,0,1171,0,No
0,0,0,0,0,4,0,0,0,0,0,0,0,1171,0,No
2,10,11,0,0,4,0,0,0,0,0,0,0,965,2,No
0,0,0,0,0,3,0,0,0,0,0,0,0,1171,1,No
2,1,2,0,0,5,0,0,0,0,0,0,0,965,0,No
0,1,0,0,0,4,0,0,0,0,0,0,0,1171,0,No
7,16,42,0,3,5,0,0,0,0,0,0,0,1171,4,Yes
2,2,11,0,1,3,0,0,0,0,0,0,0,940,0,No
7,19,49,0,3,5,0,0,0,0,0,0,0,1171,5,Yes
10,0,10,0,0,1,0,0,0,0,0,0,0,336,0,No
1,0,4,0,0,0,0,0,0,0,0,0,0,0,0,No
2,1,4,0,1,5,0,0,0,0,0,0,0,1610,0,No
6,1,6,0,0,5,0,0,0,0,0,0,0,1610,0,No
7,4,7,0,0,7,0,0,0,0,0,0,0,1571,0,No
0,1,0,0,1,5,0,0,0,0,0,0,0,1571,1,No
8,12,14,0,3,8,0,0,0,0,0,0,0,1535,1,No
14,17,44,0,2,9,0,0,0,0,0,0,0,1550,5,Yes
1,3,5,0,2,2,0,0,0,0,0,0,0,331,4,No
3,4,4,0,0,4,0,0,0,0,0,0,0,1389,0,No
12,20,37,0,2,7,0,0,0,0,0,0,0,1332,4,No
6,5,18,15,2,8,6,5,-3,0,4,27,69,1067,4,No
13,13,30,2,5,8,1,1,0,0,1,1,8,1127,1,No
13,17,46,2,3,9,1,1,0,0,1,1,8,965,6,No
10,24,35,0,3,8,0,0,0,0,0,0,0,1548,2,Yes
18,24,51,2,7,10,1,1,0,0,1,1,8,1539,2,Yes
7,17,47,0,2,7,0,0,0,0,0,0,0,1567,1,No
7,7,22,150,0,1,150,150,150,150,3,26,61,13,5,Yes
16,27,62,2,6,8,1,1,0,0,1,1,8,1444,6,No
0,0,0,0,0,7,0,0,0,0,0,0,0,1610,0,No
1,0,1,0,0,4,0,0,0,0,0,0,0,1610,0,No
0,0,0,0,1,2,0,0,0,0,0,0,0,331,0,No
30,33,85,53,14,10,48,47,43,43,4,27,69,1577,1,No
7,11,10,0,0,2,0,0,0,0,0,0,0,436,0,No
11,6,12,0,2,6,0,0,0,0,0,0,0,1060,0,No
17,62,206,8,7,8,2,2,-4,0,3,26,61,1538,8,Yes
2,2,2,0,0,4,0,0,0,0,0,0,0,1571,0,No
3,11,5,0,0,4,0,0,0,0,0,0,0,1535,0,No
5,11,36,0,0,6,0,0,0,0,0,0,0,1550,0,No
2,2,2,0,0,5,0,0,0,0,0,0,0,1571,0,No
3,3,3,6,1,5,3,3,0,0,3,26,61,1067,0,No
4,18,38,5,3,5,4,4,3,3,1,2,2,1126,0,No
7,12,23,0,0,5,0,0,0,0,0,0,0,965,1,No
13,24,57,0,4,6,0,0,0,0,0,0,0,1548,0,No
7,39,74,17,5,7,7,7,-3,0,2,5,5,1560,5,Yes
12,14,20,0,3,5,0,0,0,0,0,0,0,1562,0,No
1,2,1,0,0,0,0,0,0,0,0,0,0,0,0,No
5,10,29,0,0,1,0,0,0,0,0,0,0,100,0,No
3,3,3,46,0,1,46,46,46,46,3,26,61,13,0,No
7,33,67,0,3,8,0,0,0,0,0,0,0,1448,1,No
7,0,9,0,0,4,0,0,0,0,0,0,0,1577,0,No
17,32,72,131,12,11,68,67,5,5,7,36,82,1560,4,Yes
3,0,18,0,1,3,0,0,0,0,0,0,0,622,1,No
10,11,46,0,3,6,0,0,0,0,0,0,0,622,1,No
5,0,5,0,0,4,0,0,0,0,0,0,0,1546,1,No
2,2,4,0,0,4,0,0,0,0,0,0,0,759,0,No
9,17,37,0,9,9,0,0,0,0,0,0,0,1386,5,No
1,8,10,0,2,4,0,0,0,0,0,0,0,1386,0,No
7,10,29,0,1,6,0,0,0,0,0,0,0,1610,1,No
1,1,4,0,0,1,0,0,0,0,0,0,0,304,0,No
8,7,8,0,1,4,0,0,0,0,0,0,0,622,0,No
13,10,15,0,1,5,0,0,0,0,0,0,0,621,0,No
2,4,2,0,0,5,0,0,0,0,0,0,0,1610,0,No
5,7,16,0,1,4,0,0,0,0,0,0,0,637,1,No
5,4,5,6,1,3,3,3,0,0,3,26,61,616,0,No
7,10,19,0,2,4,0,0,0,0,0,0,0,617,0,No
14,11,15,0,2,3,0,0,0,0,0,0,0,616,0,No
11,16,17,0,0,5,0,0,0,0,0,0,0,621,1,No
17,13,31,0,4,4,0,0,0,0,0,0,0,615,0,No
5,6,5,6,0,4,3,3,0,0,3,26,61,618,0,No
6,4,6,49,1,3,27,27,5,5,3,26,61,616,0,No
16,19,21,0,2,5,0,0,0,0,0,0,0,611,0,No
7,7,10,27,1,4,25,24,23,23,7,36,96,616,0,No
18,17,32,0,5,6,0,0,0,0,0,0,0,612,0,No
6,4,6,0,1,7,0,0,0,0,0,0,0,1610,0,No
6,5,16,0,1,3,0,0,0,0,0,0,0,609,0,No
2,1,2,0,1,6,0,0,0,0,0,0,0,1571,2,No
11,1,11,0,0,2,0,0,0,0,0,0,0,268,3,No
11,2,11,0,0,8,0,0,0,0,0,0,0,1046,3,No
9,2,9,0,0,2,0,0,0,0,0,0,0,268,12,No
9,3,9,0,0,7,0,0,0,0,0,0,0,1046,9,No
1,1,1,0,1,6,0,0,0,0,0,0,0,1571,0,No
10,3,10,0,0,2,0,0,0,0,0,0,0,98,0,No
15,3,20,0,0,6,0,0,0,0,0,0,0,1063,0,No
7,26,50,0,0,2,0,0,0,0,0,0,0,98,3,Yes
15,23,63,0,0,1,0,0,0,0,0,0,0,98,12,Yes
19,16,89,0,0,2,0,0,0,0,0,0,0,98,20,No
6,16,49,0,3,6,0,0,0,0,0,0,0,709,1,No
2,12,2,0,0,2,0,0,0,0,0,0,0,268,0,No
5,13,18,0,0,3,0,0,0,0,0,0,0,113,1,No
7,28,29,0,3,5,0,0,0,0,0,0,0,647,0,No
4,10,14,0,0,3,0,0,0,0,0,0,0,113,2,No
3,17,16,0,0,2,0,0,0,0,0,0,0,268,4,Yes
10,10,15,0,0,1,0,0,0,0,0,0,0,98,0,Yes
10,14,18,0,0,1,0,0,0,0,0,0,0,98,2,No
3,18,31,0,3,7,0,0,0,0,0,0,0,709,1,No
10,10,15,0,0,1,0,0,0,0,0,0,0,98,0,No
9,12,22,0,0,2,0,0,0,0,0,0,0,98,2,No
3,0,3,0,0,3,0,0,0,0,0,0,0,1610,0,No
37,63,193,0,5,6,0,0,0,0,0,0,0,1538,8,No
1,0,16,0,0,1,0,0,0,0,0,0,0,92,0,No
1,0,10,0,0,1,0,0,0,0,0,0,0,92,1,No
12,1,47,0,0,7,0,0,0,0,0,0,0,1105,7,No
5,4,58,0,3,7,0,0,0,0,0,0,0,994,4,Yes
3,0,38,0,0,1,0,0,0,0,0,0,0,547,9,No
13,1,16,0,2,1,0,0,0,0,0,0,0,581,0,No
7,4,22,18,1,4,18,18,18,18,3,26,61,759,3,No
8,2,19,0,0,5,0,0,0,0,0,0,0,1309,1,No
1,0,2,0,0,4,0,0,0,0,0,0,0,1610,0,No
1,0,9,0,0,2,0,0,0,0,0,0,0,92,3,No
2,0,6,0,0,2,0,0,0,0,0,0,0,92,3,No
0,0,0,0,0,5,0,0,0,0,0,0,0,1571,0,No
10,34,133,0,9,7,0,0,0,0,0,0,0,945,16,No
2,0,4,3,0,1,3,3,3,3,3,26,61,92,1,Yes
8,0,10,0,0,1,0,0,0,0,0,0,0,59,0,No
4,0,4,0,0,6,0,0,0,0,0,0,0,1571,1,No
4,0,6,0,0,1,0,0,0,0,0,0,0,59,2,No
1,0,7,0,0,1,0,0,0,0,0,0,0,92,0,No
9,13,33,0,0,5,0,0,0,0,0,0,0,1171,2,No
1,0,5,0,1,1,0,0,0,0,0,0,0,554,0,No
7,0,7,0,0,1,0,0,0,0,0,0,0,59,0,No
5,1,14,0,1,2,0,0,0,0,0,0,0,596,0,No
6,1,6,0,1,3,0,0,0,0,0,0,0,596,0,No
7,0,8,0,0,4,0,0,0,0,0,0,0,1610,0,No
2,0,4,0,0,4,0,0,0,0,0,0,0,1610,0,No
2,0,2,0,0,5,0,0,0,0,0,0,0,1571,0,No
9,7,44,0,3,5,0,0,0,0,0,0,0,1268,10,No
14,0,18,0,1,5,0,0,0,0,0,0,0,994,0,No
2,0,6,0,0,4,0,0,0,0,0,0,0,994,1,No
3,2,4,0,1,5,0,0,0,0,0,0,0,1226,3,No
9,3,9,0,2,5,0,0,0,0,0,0,0,688,0,No
0,0,0,0,1,6,0,0,0,0,0,0,0,1571,0,No
0,1,0,0,1,5,0,0,0,0,0,0,0,1171,0,No
3,0,3,0,1,6,0,0,0,0,0,0,0,1571,0,No
9,1,9,0,1,4,0,0,0,0,0,0,0,1060,0,Yes
1,7,3,0,2,4,0,0,0,0,0,0,0,626,1,No
0,0,0,0,0,3,0,0,0,0,0,0,0,1571,0,No
5,9,5,0,0,4,0,0,0,0,0,0,0,688,0,No
12,11,12,0,1,4,0,0,0,0,0,0,0,688,0,No
4,7,4,0,0,3,0,0,0,0,0,0,0,688,0,No
19,9,19,17,1,9,17,17,17,17,3,26,61,1078,0,No
18,13,25,38,6,8,30,30,22,22,3,26,61,1095,0,No
12,7,12,21,1,8,21,21,21,21,3,26,61,1095,1,No
3,1,8,0,0,1,0,0,0,0,0,0,0,322,3,No
37,21,109,43,5,8,36,33,29,26,7,36,82,1084,11,Yes
3,2,6,0,1,7,0,0,0,0,0,0,0,1084,3,No
1,1,1,0,0,3,0,0,0,0,0,0,0,1171,0,No
14,3,16,0,0,5,0,0,0,0,0,0,0,1072,2,No
17,2,26,0,0,5,0,0,0,0,0,0,0,1072,1,No
1,0,1,0,0,3,0,0,0,0,0,0,0,1171,0,No
4,0,4,0,0,3,0,0,0,0,0,0,0,1171,0,No
21,4,24,0,0,5,0,0,0,0,0,0,0,1072,2,No
22,7,38,0,1,5,0,0,0,0,0,0,0,1072,1,No
2,0,2,0,1,5,0,0,0,0,0,0,0,1610,1,No
1,1,1,0,1,4,0,0,0,0,0,0,0,1171,0,No
1,4,2,0,0,6,0,0,0,0,0,0,0,1084,1,No
1,2,2,0,1,4,0,0,0,0,0,0,0,1084,0,No
1,3,1,0,0,3,0,0,0,0,0,0,0,1084,0,No
1,5,2,46,0,5,28,28,10,10,3,26,61,1084,0,No
1,3,2,21,0,3,12,12,3,3,3,26,61,1084,0,No
1,0,1,0,0,3,0,0,0,0,0,0,0,1171,1,No
1,0,1,0,0,3,0,0,0,0,0,0,0,1171,1,No
1,5,3,0,0,5,0,0,0,0,0,0,0,1084,0,No
0,0,0,0,1,5,0,0,0,0,0,0,0,1571,1,No
3,0,3,0,1,1,0,0,0,0,0,0,0,93,0,No
4,1,7,0,1,1,0,0,0,0,0,0,0,93,3,No
3,3,3,0,1,1,0,0,0,0,0,0,0,93,3,No
6,0,6,0,0,1,0,0,0,0,0,0,0,93,6,No
2,0,2,0,0,1,0,0,0,0,0,0,0,93,3,No
2,0,5,0,0,1,0,0,0,0,0,0,0,93,1,No
2,0,5,0,0,1,0,0,0,0,0,0,0,93,1,No
2,0,2,0,0,1,0,0,0,0,0,0,0,93,1,No
1,0,1,0,0,1,0,0,0,0,0,0,0,93,1,No
0,0,0,0,0,1,0,0,0,0,0,0,0,93,1,No
0,0,0,80,0,1,80,80,80,80,1,4,11,2,1,No
0,0,0,58,0,1,58,58,58,58,1,4,11,2,1,No
0,0,0,0,0,1,0,0,0,0,0,0,0,93,1,No
0,0,0,99,0,1,99,99,99,99,1,4,11,2,1,No
0,0,0,0,0,1,0,0,0,0,0,0,0,93,1,No
0,0,0,0,0,2,0,0,0,0,0,0,0,93,1,No
1,6,11,90,1,2,72,48,54,43,3,10,25,93,5,No
1,11,23,65,1,2,63,62,61,61,2,8,22,93,32,No
2,5,7,0,0,1,0,0,0,0,0,0,0,93,8,No
3,1,15,38,0,2,30,30,22,22,1,4,11,92,8,No
7,0,16,31,0,2,31,31,31,31,1,4,11,93,4,No
7,0,16,0,0,1,0,0,0,0,0,0,0,93,11,No
6,0,7,9,0,1,8,8,7,7,1,2,3,55,1,No
2,2,4,0,0,1,0,0,0,0,0,0,0,93,3,No
9,0,28,115,0,2,104,73,93,68,3,10,25,62,2,No
1,0,2,0,0,1,0,0,0,0,0,0,0,93,1,No
1,0,2,0,0,1,0,0,0,0,0,0,0,93,0,No
4,0,13,0,0,1,0,0,0,0,0,0,0,93,1,No
4,2,23,0,0,1,0,0,0,0,0,0,0,93,1,No
5,2,15,29,0,2,24,24,19,19,1,4,11,93,2,No
2,0,6,0,0,3,0,0,0,0,0,0,0,1070,2,No
6,0,19,0,1,3,0,0,0,0,0,0,0,1070,1,No
3,0,9,1,1,2,0,0,-1,0,6,14,15,599,5,No
2,0,9,0,1,3,0,0,0,0,0,0,0,1070,2,No
5,0,17,0,0,3,0,0,0,0,0,0,0,1070,1,No
1,0,10,0,0,1,0,0,0,0,0,0,0,709,5,No
4,0,5,0,0,2,0,0,0,0,0,0,0,662,1,No
18,9,20,0,1,1,0,0,0,0,0,0,0,423,0,No
21,3,29,0,0,1,0,0,0,0,0,0,0,423,1,No
3,4,17,0,1,3,0,0,0,0,0,0,0,663,4,No
2,0,4,0,0,1,0,0,0,0,0,0,0,482,0,No
3,4,3,0,0,4,0,0,0,0,0,0,0,1655,0,No
7,1,14,0,0,1,0,0,0,0,0,0,0,103,0,No
11,1,13,0,0,1,0,0,0,0,0,0,0,170,0,No
0,0,0,0,0,6,0,0,0,0,0,0,0,1216,1,No
0,0,0,0,0,5,0,0,0,0,0,0,0,1216,0,No
0,1,0,0,0,4,0,0,0,0,0,0,0,1216,0,No
0,0,0,0,0,4,0,0,0,0,0,0,0,1216,0,No
9,1,14,0,0,5,0,0,0,0,0,0,0,1571,0,No
3,0,5,0,0,5,0,0,0,0,0,0,0,1655,0,No
5,1,6,0,0,4,0,0,0,0,0,0,0,1571,0,No
3,0,4,0,0,5,0,0,0,0,0,0,0,1655,0,No
2,1,2,0,1,4,0,0,0,0,0,0,0,1655,0,No
5,2,5,0,0,2,0,0,0,0,0,0,0,322,0,No
46,0,65,0,1,4,0,0,0,0,0,0,0,1591,0,No
9,1,9,0,0,2,0,0,0,0,0,0,0,683,0,No
13,0,20,0,0,5,0,0,0,0,0,0,0,1571,0,No
0,1,0,0,0,0,0,0,0,0,0,0,0,0,0,No
0,0,0,0,0,0,0,0,0,0,0,0,0,0,0,No
2,1,2,0,0,5,0,0,0,0,0,0,0,1216,0,No
1,0,1,0,0,4,0,0,0,0,0,0,0,1010,0,No
6,2,6,0,0,5,0,0,0,0,0,0,0,1010,0,No
11,1,13,0,0,3,0,0,0,0,0,0,0,985,0,No
6,2,6,0,0,5,0,0,0,0,0,0,0,1010,0,No
0,1,0,0,0,0,0,0,0,0,0,0,0,0,0,No
3,1,3,0,0,0,0,0,0,0,0,0,0,0,0,No
9,1,14,0,0,1,0,0,0,0,0,0,0,322,1,No
5,2,5,0,0,1,0,0,0,0,0,0,0,331,0,No
11,1,11,0,0,0,0,0,0,0,0,0,0,0,0,No
0,1,0,0,0,1,0,0,0,0,0,0,0,317,0,No
3,0,4,0,2,1,0,0,0,0,0,0,0,335,1,No
7,0,7,0,0,1,0,0,0,0,0,0,0,335,0,No
2,0,2,0,0,3,0,0,0,0,0,0,0,1616,0,No
2,4,7,0,0,1,0,0,0,0,0,0,0,150,1,No
2,0,4,0,0,0,0,0,0,0,0,0,0,0,0,No
11,0,11,0,1,2,0,0,0,0,0,0,0,335,0,No
4,0,4,0,1,2,0,0,0,0,0,0,0,335,1,No
9,0,9,0,1,2,0,0,0,0,0,0,0,335,0,No
2,0,2,0,1,2,0,0,0,0,0,0,0,335,0,No
7,4,7,0,1,3,0,0,0,0,0,0,0,682,0,No
13,7,13,0,1,3,0,0,0,0,0,0,0,682,0,No
2,1,2,0,0,4,0,0,0,0,0,0,0,1655,0,No
0,0,0,0,1,1,0,0,0,0,0,0,0,334,16,No
5,3,5,0,1,3,0,0,0,0,0,0,0,682,1,No
5,1,5,0,0,4,0,0,0,0,0,0,0,677,0,No
7,3,7,0,3,3,0,0,0,0,0,0,0,678,0,No
13,5,13,0,2,3,0,0,0,0,0,0,0,681,0,No
11,8,11,0,0,3,0,0,0,0,0,0,0,681,0,No
18,8,18,14,3,4,14,14,14,14,3,5,5,683,0,No
5,3,5,0,0,3,0,0,0,0,0,0,0,677,0,No
6,1,6,0,0,4,0,0,0,0,0,0,0,677,0,No
16,11,16,0,3,4,0,0,0,0,0,0,0,678,0,No
7,2,7,5,1,7,3,3,1,1,3,3,4,1655,0,No
18,10,18,0,3,6,0,0,0,0,0,0,0,683,0,No
6,2,6,0,1,6,0,0,0,0,0,0,0,1655,1,No
4,2,4,0,1,4,0,0,0,0,0,0,0,682,0,No
6,0,8,0,0,7,0,0,0,0,0,0,0,1622,0,No
10,1,14,0,0,4,0,0,0,0,0,0,0,1493,0,No
8,2,8,0,0,4,0,0,0,0,0,0,0,1655,0,No
2,1,2,0,0,4,0,0,0,0,0,0,0,1655,0,No
3,0,7,0,0,5,0,0,0,0,0,0,0,1655,0,No
15,2,15,0,0,5,0,0,0,0,0,0,0,1216,0,No
9,1,11,0,0,2,0,0,0,0,0,0,0,479,0,No
9,1,13,0,0,6,0,0,0,0,0,0,0,1493,0,No
3,2,3,0,0,4,0,0,0,0,0,0,0,1655,0,No
5,1,5,0,0,5,0,0,0,0,0,0,0,1655,0,No
0,0,0,0,0,1,0,0,0,0,0,0,0,317,0,No
11,2,11,0,0,4,0,0,0,0,0,0,0,1593,0,No
3,1,3,0,0,4,0,0,0,0,0,0,0,1655,2,No
19,3,21,0,0,7,0,0,0,0,0,0,0,1595,0,No
2,0,3,0,1,6,0,0,0,0,0,0,0,1031,0,No
10,1,10,0,0,1,0,0,0,0,0,0,0,355,0,No
2,0,2,0,0,4,0,0,0,0,0,0,0,1612,0,No
7,2,8,0,2,2,0,0,0,0,0,0,0,376,0,No
4,2,4,0,0,4,0,0,0,0,0,0,0,1655,0,No
16,3,16,0,0,6,0,0,0,0,0,0,0,1600,0,No
10,2,23,0,1,5,0,0,0,0,0,0,0,735,1,Yes
4,0,4,0,0,5,0,0,0,0,0,0,0,1655,0,No
26,3,26,0,0,7,0,0,0,0,0,0,0,1112,0,No
13,1,13,0,0,6,0,0,0,0,0,0,0,1105,0,No
2,2,2,0,0,4,0,0,0,0,0,0,0,1655,0,No
10,3,10,0,0,1,0,0,0,0,0,0,0,178,1,No
18,3,18,0,0,4,0,0,0,0,0,0,0,1493,0,No
4,0,4,0,0,2,0,0,0,0,0,0,0,317,0,No
2,0,2,0,0,4,0,0,0,0,0,0,0,1216,0,No
18,2,26,0,0,5,0,0,0,0,0,0,0,1010,0,No
40,3,40,0,1,5,0,0,0,0,0,0,0,1591,0,No
35,0,39,0,1,5,0,0,0,0,0,0,0,1584,0,No
12,0,16,0,0,5,0,0,0,0,0,0,0,1655,0,No
24,2,25,0,0,6,0,0,0,0,0,0,0,1655,0,No
4,1,4,0,0,4,0,0,0,0,0,0,0,1655,0,No
2,2,2,0,0,4,0,0,0,0,0,0,0,1655,0,No
6,0,6,0,0,5,0,0,0,0,0,0,0,1216,0,No
2,0,2,0,0,4,0,0,0,0,0,0,0,1493,0,No
24,0,30,0,0,6,0,0,0,0,0,0,0,1622,1,No
2,0,2,0,0,5,0,0,0,0,0,0,0,1655,0,No
17,2,17,0,0,4,0,0,0,0,0,0,0,1118,0,No
20,2,27,0,0,6,0,0,0,0,0,0,0,1118,3,No
0,1,0,0,0,0,0,0,0,0,0,0,0,0,0,No
0,1,0,0,0,4,0,0,0,0,0,0,0,1616,1,No
18,1,22,0,0,5,0,0,0,0,0,0,0,1616,0,No
0,0,0,0,0,5,0,0,0,0,0,0,0,1616,0,No
2,0,4,0,0,4,0,0,0,0,0,0,0,1655,3,No
1,0,1,0,2,5,0,0,0,0,0,0,0,1655,1,No
7,4,10,0,2,3,0,0,0,0,0,0,0,969,0,No
2,0,2,0,0,6,0,0,0,0,0,0,0,1616,0,No
4,0,7,3,1,2,2,1,1,1,8,18,33,384,1,No
1,0,1,0,0,6,0,0,0,0,0,0,0,1616,1,No
16,1,18,0,0,5,0,0,0,0,0,0,0,1655,1,No
6,1,6,3,1,5,2,2,1,1,1,1,1,1655,1,No
1,0,1,0,0,4,0,0,0,0,0,0,0,1616,0,No
0,0,0,0,0,5,0,0,0,0,0,0,0,1616,0,No
2,0,2,0,2,3,0,0,0,0,0,0,0,942,0,No
5,0,18,0,2,7,0,0,0,0,0,0,0,1616,9,No
2,0,2,0,0,4,0,0,0,0,0,0,0,1616,0,No
1,0,1,0,0,5,0,0,0,0,0,0,0,1616,0,No
0,0,0,0,1,3,0,0,0,0,0,0,0,636,0,No
0,0,0,0,0,5,0,0,0,0,0,0,0,1616,0,No
46,1,50,0,0,7,0,0,0,0,0,0,0,1185,0,No
2,0,2,0,0,6,0,0,0,0,0,0,0,1616,1,No
2,0,5,0,0,5,0,0,0,0,0,0,0,1216,1,No
0,0,0,0,0,4,0,0,0,0,0,0,0,1616,0,No
2,0,3,0,0,5,0,0,0,0,0,0,0,1616,1,No
0,0,0,0,0,5,0,0,0,0,0,0,0,1216,0,No
0,0,0,0,0,4,0,0,0,0,0,0,0,1616,0,No
1,0,1,0,0,5,0,0,0,0,0,0,0,1616,1,No
0,0,0,0,0,5,0,0,0,0,0,0,0,1616,0,No
0,0,0,0,0,5,0,0,0,0,0,0,0,1616,0,No
0,0,0,0,1,6,0,0,0,0,0,0,0,1616,0,No
2,4,5,0,1,4,0,0,0,0,0,0,0,1216,3,No
1,0,2,0,0,5,0,0,0,0,0,0,0,1616,0,No
8,2,9,0,0,8,0,0,0,0,0,0,0,1616,0,No
2,0,5,0,0,6,0,0,0,0,0,0,0,1216,2,No
0,0,0,0,0,4,0,0,0,0,0,0,0,1616,0,No
0,0,0,0,0,5,0,0,0,0,0,0,0,1616,0,No
0,0,0,0,0,4,0,0,0,0,0,0,0,1216,0,No
2,0,2,0,0,0,0,0,0,0,0,0,0,0,0,No
0,1,0,0,0,4,0,0,0,0,0,0,0,1616,0,No
10,13,70,0,1,7,0,0,0,0,0,0,0,1098,0,No
4,0,23,0,0,1,0,0,0,0,0,0,0,478,4,No
5,4,10,0,2,4,0,0,0,0,0,0,0,667,1,No
2,4,19,0,2,2,0,0,0,0,0,0,0,376,2,No
3,1,4,0,0,1,0,0,0,0,0,0,0,317,1,No
0,0,0,0,0,1,0,0,0,0,0,0,0,317,0,No
0,0,0,0,0,1,0,0,0,0,0,0,0,317,0,No
0,0,0,0,0,1,0,0,0,0,0,0,0,317,0,No
0,0,0,0,0,1,0,0,0,0,0,0,0,317,0,No
0,0,0,0,0,1,0,0,0,0,0,0,0,317,0,No
0,0,0,0,0,2,0,0,0,0,0,0,0,317,0,No
0,0,0,0,0,1,0,0,0,0,0,0,0,317,0,No
0,0,0,0,0,1,0,0,0,0,0,0,0,317,0,No
0,0,0,0,1,6,0,0,0,0,0,0,0,1616,0,No
0,0,0,0,0,1,0,0,0,0,0,0,0,317,0,No
0,0,0,0,0,1,0,0,0,0,0,0,0,317,0,No
0,1,0,0,0,1,0,0,0,0,0,0,0,317,0,No
14,20,29,24,2,6,16,11,8,8,2,8,32,1616,0,No
1,2,8,0,1,3,0,0,0,0,0,0,0,1479,1,No
22,3,28,0,3,8,0,0,0,0,0,0,0,1616,0,No
1,0,1,0,0,1,0,0,0,0,0,0,0,405,0,No
5,1,14,115,0,2,110,98,105,98,5,16,28,23,0,No
4,2,10,0,2,7,0,0,0,0,0,0,0,1108,2,No
3,0,3,0,0,2,0,0,0,0,0,0,0,817,0,No
0,0,0,0,0,3,0,0,0,0,0,0,0,548,0,No
0,0,0,0,0,2,0,0,0,0,0,0,0,548,0,No
0,0,0,0,0,4,0,0,0,0,0,0,0,1616,0,No
3,1,4,0,0,5,0,0,0,0,0,0,0,1216,2,No
6,0,9,0,0,4,0,0,0,0,0,0,0,997,0,No
3,0,3,0,0,2,0,0,0,0,0,0,0,654,1,No
2,0,2,0,0,5,0,0,0,0,0,0,0,1216,0,No
0,0,0,9,0,3,8,8,7,7,1,6,31,1616,0,No
10,0,20,0,3,6,0,0,0,0,0,0,0,1370,2,No
7,2,12,0,0,4,0,0,0,0,0,0,0,1375,1,No
1,1,4,0,0,3,0,0,0,0,0,0,0,1655,1,No
1,6,3,0,1,4,0,0,0,0,0,0,0,1285,0,No
2,0,3,0,0,3,0,0,0,0,0,0,0,1655,0,No
7,0,12,0,0,5,0,0,0,0,0,0,0,1215,1,No
2,3,12,0,2,6,0,0,0,0,0,0,0,1333,2,No
2,0,7,0,1,5,0,0,0,0,0,0,0,1335,0,No
3,0,16,104,0,6,60,60,16,16,1,7,31,1444,0,No
5,1,5,0,0,1,0,0,0,0,0,0,0,382,0,No
3,2,3,0,0,4,0,0,0,0,0,0,0,1655,0,No
2,0,2,0,0,5,0,0,0,0,0,0,0,1616,1,No
12,3,12,0,0,4,0,0,0,0,0,0,0,1655,0,No
14,10,52,0,0,5,0,0,0,0,0,0,0,998,3,No
2,0,6,0,0,1,0,0,0,0,0,0,0,139,0,No
3,3,6,0,0,1,0,0,0,0,0,0,0,139,2,No
1,0,1,0,1,7,0,0,0,0,0,0,0,1655,0,No
8,3,28,0,0,4,0,0,0,0,0,0,0,997,1,No
2,0,4,0,0,1,0,0,0,0,0,0,0,654,0,No
2,8,15,152,1,1,152,152,152,152,3,5,7,16,0,No
4,13,4,6,2,6,5,5,4,4,1,6,16,1616,0,No
4,6,6,4,1,7,2,2,0,0,1,7,31,1215,1,No
2,2,2,0,0,5,0,0,0,0,0,0,0,1285,0,No
0,0,0,0,0,2,0,0,0,0,0,0,0,405,0,No
8,8,9,101,1,8,52,52,3,3,2,2,3,1215,0,No
0,0,0,0,0,4,0,0,0,0,0,0,0,1616,0,No
10,12,29,4,5,6,2,2,0,0,1,7,31,1115,2,No
0,1,0,0,1,5,0,0,0,0,0,0,0,1616,0,No
6,2,10,0,2,8,0,0,0,0,0,0,0,1616,2,No
0,0,0,0,1,5,0,0,0,0,0,0,0,1616,0,No
6,7,7,6,4,3,5,5,4,4,3,5,5,614,1,No
4,2,4,0,0,3,0,0,0,0,0,0,0,614,0,No
3,5,8,91,2,8,38,38,-15,0,1,6,16,1285,1,No
38,22,58,171,7,8,81,39,-9,19,6,30,101,1616,15,No
4,5,5,4,0,2,2,2,0,0,1,6,31,55,2,No
3,5,13,0,0,2,0,0,0,0,0,0,0,620,0,No
13,13,38,153,10,8,32,14,-89,13,8,17,45,1591,5,No
4,6,12,0,3,7,0,0,0,0,0,0,0,1591,1,No
11,4,12,0,3,7,0,0,0,0,0,0,0,1564,1,No
2,9,5,10,7,6,3,2,-4,0,4,20,70,1010,0,No
0,0,0,0,1,3,0,0,0,0,0,0,0,1616,0,No
0,0,0,0,0,3,0,0,0,0,0,0,0,1216,0,No
0,0,0,0,0,1,0,0,0,0,0,0,0,485,0,No
0,0,0,0,0,3,0,0,0,0,0,0,0,1616,0,No
0,1,0,0,0,2,0,0,0,0,0,0,0,657,2,No
17,10,19,3,7,8,1,1,-1,0,3,11,23,1615,3,No
0,1,0,0,0,5,0,0,0,0,0,0,0,1614,0,No
4,7,4,9,4,8,5,5,1,1,1,6,31,1564,1,No
13,15,37,8,9,8,2,2,-4,0,2,13,47,1105,4,Yes
0,3,0,0,1,6,0,0,0,0,0,0,0,1105,0,No
23,20,49,0,5,8,0,0,0,0,0,0,0,1115,7,No
0,2,0,0,1,4,0,0,0,0,0,0,0,1285,0,No
7,17,14,0,1,3,0,0,0,0,0,0,0,405,5,No
5,8,8,0,0,2,0,0,0,0,0,0,0,149,0,No
3,3,3,0,0,4,0,0,0,0,0,0,0,997,0,No
39,19,75,4,5,8,2,2,0,0,1,7,31,997,3,No
12,17,73,3,5,7,2,2,1,1,1,2,2,985,3,No
19,17,44,14,10,9,7,7,0,0,1,7,31,1616,6,No
5,6,7,12,1,2,9,7,6,5,2,7,32,55,4,No
5,9,18,11,9,8,7,6,3,3,4,12,38,1585,3,No
43,15,54,47,8,8,36,22,25,20,3,11,35,1616,17,No
13,12,37,13,1,6,7,7,1,1,1,6,31,998,3,No
5,6,9,31,7,8,11,9,-9,0,3,19,78,1564,1,No
4,5,6,0,0,4,0,0,0,0,0,0,0,748,1,No
1,3,1,5,0,5,3,3,1,1,1,6,31,1285,0,No
8,8,13,2,5,8,1,1,0,0,1,6,31,1616,5,No
2,2,3,0,0,7,0,0,0,0,0,0,0,1215,0,No
19,14,35,6,5,8,3,3,0,0,1,7,31,1609,2,No
11,12,55,16,4,9,10,8,4,4,2,9,33,1591,5,No
3,6,5,0,1,8,0,0,0,0,0,0,0,1285,2,No
20,16,59,2,1,8,1,1,0,0,1,7,31,1024,11,No
2,5,3,0,1,8,0,0,0,0,0,0,0,1215,0,No
11,14,19,0,6,8,0,0,0,0,0,0,0,1480,2,No
11,13,17,0,5,8,0,0,0,0,0,0,0,1616,1,No
10,10,12,10,4,8,4,4,-2,0,3,9,34,1115,3,No
10,11,20,21,7,8,8,4,-5,2,4,20,70,1564,2,No
3,4,4,0,0,5,0,0,0,0,0,0,0,748,1,No
2,5,4,1,0,6,1,1,1,1,1,6,31,1285,0,No
2,3,2,3,0,5,2,2,1,1,1,6,31,1285,0,No
7,9,10,2,6,8,1,1,0,0,1,7,31,1616,4,No
2,1,2,0,0,5,0,0,0,0,0,0,0,1285,0,No
4,6,12,0,1,8,0,0,0,0,0,0,0,1285,1,No
2,3,2,0,0,6,0,0,0,0,0,0,0,1616,0,No
2,4,3,0,2,2,0,0,0,0,0,0,0,359,2,No
12,12,61,0,2,4,0,0,0,0,0,0,0,696,1,No
17,8,23,0,7,8,0,0,0,0,0,0,0,1108,1,No
6,10,12,0,0,1,0,0,0,0,0,0,0,149,0,No
0,3,0,0,1,3,0,0,0,0,0,0,0,548,0,No
0,3,0,0,0,6,0,0,0,0,0,0,0,1010,0,No
10,6,10,0,0,1,0,0,0,0,0,0,0,405,0,No
4,8,5,0,3,3,0,0,0,0,0,0,0,614,1,No
6,8,17,44,0,2,22,21,0,0,4,17,54,402,1,No
10,27,65,220,4,7,129,59,38,46,7,27,65,1200,5,No
9,0,11,0,0,0,0,0,0,0,0,0,0,0,2,No
9,11,19,0,2,6,0,0,0,0,0,0,0,1283,1,No
8,4,19,22,2,3,11,11,0,0,1,6,31,376,2,No
1,0,1,0,0,1,0,0,0,0,0,0,0,405,0,No
2,0,2,0,0,4,0,0,0,0,0,0,0,1616,0,No
4,8,5,270,0,2,200,175,130,175,5,18,55,30,5,No
21,11,46,0,4,3,0,0,0,0,0,0,0,376,1,No
11,14,33,9,6,7,5,5,1,1,1,6,31,1200,0,No
3,1,7,0,1,2,0,0,0,0,0,0,0,194,0,No
11,10,23,0,3,8,0,0,0,0,0,0,0,1616,6,No
15,16,25,2,3,8,1,1,0,0,1,7,31,1166,5,No
14,16,31,0,2,7,0,0,0,0,0,0,0,1172,1,No
12,12,24,0,3,8,0,0,0,0,0,0,0,1616,6,No
9,10,21,0,0,2,0,0,0,0,0,0,0,149,6,No
4,8,17,231,6,7,56,53,-119,1,5,8,10,1010,2,No
11,11,14,0,1,7,0,0,0,0,0,0,0,1010,2,No
19,20,94,0,10,9,0,0,0,0,0,0,0,1010,2,No
5,5,15,6,0,7,3,3,0,0,1,6,31,1124,1,No
6,13,18,6,2,8,3,3,0,0,3,11,23,1200,2,No
20,13,40,0,5,4,0,0,0,0,0,0,0,748,3,No
6,8,6,16,3,7,8,7,0,0,2,13,62,1101,4,No
7,3,7,0,1,4,0,0,0,0,0,0,0,696,1,No
11,11,15,0,5,5,0,0,0,0,0,0,0,696,1,No
6,7,11,0,0,7,0,0,0,0,0,0,0,1124,1,No
7,7,7,10,1,5,4,3,-2,0,2,13,47,1101,4,No
9,15,10,19,3,7,9,4,-1,1,3,19,78,1101,2,No
13,12,27,2,3,8,1,1,0,0,1,7,31,1616,6,No
13,0,13,0,0,0,0,0,0,0,0,0,0,0,0,No
22,1,68,0,1,3,0,0,0,0,0,0,0,696,3,No
3,6,4,0,0,1,0,0,0,0,0,0,0,55,1,No
3,5,4,0,2,5,0,0,0,0,0,0,0,748,0,No
10,1,14,0,2,2,0,0,0,0,0,0,0,376,0,No
8,16,17,0,1,7,0,0,0,0,0,0,0,1010,3,No
13,11,25,0,0,2,0,0,0,0,0,0,0,149,6,No
0,3,0,0,0,6,0,0,0,0,0,0,0,1010,0,No
1,7,2,0,2,7,0,0,0,0,0,0,0,1112,2,No
7,5,9,0,1,6,0,0,0,0,0,0,0,1616,1,No
16,20,34,0,8,5,0,0,0,0,0,0,0,696,2,No
12,14,34,0,2,6,0,0,0,0,0,0,0,1283,1,No
0,0,0,0,0,5,0,0,0,0,0,0,0,1216,1,No
2,2,5,0,0,1,0,0,0,0,0,0,0,139,0,No
1,1,2,0,0,1,0,0,0,0,0,0,0,139,0,No
2,0,7,0,0,1,0,0,0,0,0,0,0,359,2,No
2,1,2,0,1,1,0,0,0,0,0,0,0,359,0,No
1,1,5,0,0,1,0,0,0,0,0,0,0,359,0,No
7,4,7,0,3,6,0,0,0,0,0,0,0,1655,2,No
3,2,3,0,2,6,0,0,0,0,0,0,0,1115,0,No
2,2,2,0,1,5,0,0,0,0,0,0,0,1412,0,No
5,3,7,0,1,5,0,0,0,0,0,0,0,1655,0,No
7,7,14,44,1,6,42,18,40,18,6,25,72,1564,0,No
14,13,28,0,3,6,0,0,0,0,0,0,0,1591,1,No
2,0,2,0,0,4,0,0,0,0,0,0,0,1616,0,No
0,0,0,0,0,5,0,0,0,0,0,0,0,1616,1,No
8,7,11,0,1,6,0,0,0,0,0,0,0,1564,0,No
5,2,5,0,1,6,0,0,0,0,0,0,0,1105,0,No
7,4,14,0,4,7,0,0,0,0,0,0,0,1172,1,No
11,5,13,0,2,6,0,0,0,0,0,0,0,997,0,No
8,11,12,0,0,6,0,0,0,0,0,0,0,1585,0,No
17,14,17,2,4,7,1,1,0,0,3,5,5,1585,0,No
21,12,41,130,2,8,32,24,-66,24,4,14,26,1655,0,No
5,2,5,0,0,1,0,0,0,0,0,0,0,55,0,No
18,15,26,0,2,8,0,0,0,0,0,0,0,1480,0,No
18,17,19,0,3,8,0,0,0,0,0,0,0,1606,0,No
9,5,15,0,0,2,0,0,0,0,0,0,0,375,3,No
5,5,8,0,0,6,0,0,0,0,0,0,0,1412,1,No
4,0,4,0,0,1,0,0,0,0,0,0,0,997,0,No
3,1,5,0,1,2,0,0,0,0,0,0,0,636,0,No
3,1,5,0,1,4,0,0,0,0,0,0,0,1335,0,No
2,0,2,0,1,4,0,0,0,0,0,0,0,1335,0,No
4,1,4,0,1,5,0,0,0,0,0,0,0,1105,1,No
3,2,6,0,0,2,0,0,0,0,0,0,0,614,0,No
1,2,10,0,1,4,0,0,0,0,0,0,0,1102,0,No
0,0,0,0,0,4,0,0,0,0,0,0,0,1616,0,No
0,1,0,0,0,4,0,0,0,0,0,0,0,1616,0,No
3,0,3,0,0,5,0,0,0,0,0,0,0,1105,0,No
1,0,2,0,1,4,0,0,0,0,0,0,0,1616,0,No
1,0,2,0,1,5,0,0,0,0,0,0,0,1105,0,No
1,1,2,0,0,4,0,0,0,0,0,0,0,1105,0,No
1,2,3,0,0,4,0,0,0,0,0,0,0,1105,0,No
1,0,1,0,0,4,0,0,0,0,0,0,0,1616,0,No
5,0,5,0,1,5,0,0,0,0,0,0,0,1655,3,No
32,3,82,4,2,5,2,2,0,0,1,7,31,1024,0,No
8,1,25,0,2,8,0,0,0,0,0,0,0,1564,0,No
2,1,2,0,0,3,0,0,0,0,0,0,0,1374,0,No
5,1,5,0,3,8,0,0,0,0,0,0,0,1564,1,No
3,1,3,10,1,5,5,5,0,0,3,11,23,1172,0,No
2,1,3,0,1,5,0,0,0,0,0,0,0,1564,0,No
5,1,8,0,3,8,0,0,0,0,0,0,0,1564,1,No
8,5,16,0,0,2,0,0,0,0,0,0,0,150,4,No
1,0,1,0,0,4,0,0,0,0,0,0,0,1616,0,No
6,1,28,0,1,7,0,0,0,0,0,0,0,1172,0,Yes
4,1,5,0,1,8,0,0,0,0,0,0,0,1172,3,No
9,1,26,0,2,9,0,0,0,0,0,0,0,1172,6,No
20,0,34,0,4,7,0,0,0,0,0,0,0,1172,0,Yes
0,0,0,0,0,3,0,0,0,0,0,0,0,1616,0,No
5,1,9,0,0,1,0,0,0,0,0,0,0,174,0,No
9,1,14,0,1,6,0,0,0,0,0,0,0,1172,1,No
1,0,1,12,2,1,3,3,-6,0,3,11,23,646,0,No
9,0,30,0,0,3,0,0,0,0,0,0,0,985,1,No
8,1,47,0,1,1,0,0,0,0,0,0,0,355,2,Yes
1,0,1,0,0,5,0,0,0,0,0,0,0,1616,0,No
1,1,5,0,0,1,0,0,0,0,0,0,0,139,0,No
2,1,2,0,0,1,0,0,0,0,0,0,0,139,0,No
1,0,1,0,0,5,0,0,0,0,0,0,0,1616,0,No
16,1,20,0,0,3,0,0,0,0,0,0,0,699,4,No
1,0,1,0,0,5,0,0,0,0,0,0,0,1216,0,No
6,4,7,2,0,4,1,1,0,0,1,7,31,1101,0,No
1,1,1,0,0,4,0,0,0,0,0,0,0,1216,0,No
2,0,2,0,0,3,0,0,0,0,0,0,0,607,0,No
19,62,78,0,0,1,0,0,0,0,0,0,0,96,19,No
4,0,8,0,0,2,0,0,0,0,0,0,0,96,4,No
2,0,4,0,0,2,0,0,0,0,0,0,0,138,0,No
1,0,2,0,0,2,0,0,0,0,0,0,0,96,1,No
1,0,2,0,0,1,0,0,0,0,0,0,0,425,1,No
1,6,14,0,1,3,0,0,0,0,0,0,0,977,2,No
15,45,151,0,9,9,0,0,0,0,0,0,0,989,8,No
3,2,13,0,0,1,0,0,0,0,0,0,0,355,0,No
10,9,84,0,1,5,0,0,0,0,0,0,0,754,1,No
7,11,13,0,2,7,0,0,0,0,0,0,0,1531,3,No
2,9,23,0,3,5,0,0,0,0,0,0,0,963,3,No
15,17,38,0,4,8,0,0,0,0,0,0,0,1208,5,No
1,5,10,0,1,5,0,0,0,0,0,0,0,1018,0,No
1,2,1,0,1,6,0,0,0,0,0,0,0,1271,0,No
2,1,2,0,1,5,0,0,0,0,0,0,0,1216,0,No
5,3,11,0,1,3,0,0,0,0,0,0,0,671,1,No
5,9,29,0,6,6,0,0,0,0,0,0,0,1105,2,Yes
9,34,49,0,3,9,0,0,0,0,0,0,0,1105,5,No
7,0,19,0,0,1,0,0,0,0,0,0,0,402,2,No
1,2,2,0,0,2,0,0,0,0,0,0,0,479,0,No
11,3,16,0,0,6,0,0,0,0,0,0,0,1609,0,No
5,1,5,0,1,3,0,0,0,0,0,0,0,1655,0,No
2,0,2,0,0,3,0,0,0,0,0,0,0,1616,0,No
20,7,68,0,2,5,0,0,0,0,0,0,0,1644,0,No
19,0,37,0,1,4,0,0,0,0,0,0,0,1609,0,No
6,0,15,0,2,5,0,0,0,0,0,0,0,1655,1,No
5,1,5,0,2,6,0,0,0,0,0,0,0,1629,0,No
9,2,9,0,1,4,0,0,0,0,0,0,0,1612,1,No
8,0,13,0,0,5,0,0,0,0,0,0,0,1010,0,No
12,5,19,0,0,3,0,0,0,0,0,0,0,735,9,No
17,2,24,0,0,5,0,0,0,0,0,0,0,1600,0,No
27,6,34,0,2,5,0,0,0,0,0,0,0,1642,3,No
2,0,2,0,2,5,0,0,0,0,0,0,0,1642,0,No
6,0,8,0,0,1,0,0,0,0,0,0,0,150,0,No
16,3,16,0,0,7,0,0,0,0,0,0,0,1216,0,No
8,1,12,0,0,2,0,0,0,0,0,0,0,479,1,No
8,0,11,0,0,5,0,0,0,0,0,0,0,1290,0,No
8,2,8,0,1,5,0,0,0,0,0,0,0,1612,1,No
5,1,7,0,0,5,0,0,0,0,0,0,0,1609,0,No
25,4,33,0,0,5,0,0,0,0,0,0,0,1620,0,No
10,0,10,0,0,1,0,0,0,0,0,0,0,355,0,No
4,0,4,0,0,4,0,0,0,0,0,0,0,1644,0,No
41,7,47,0,0,6,0,0,0,0,0,0,0,1600,0,No
31,3,39,0,2,6,0,0,0,0,0,0,0,1112,0,No
16,1,17,0,0,5,0,0,0,0,0,0,0,1105,0,No
0,1,0,0,0,4,0,0,0,0,0,0,0,1609,0,No
6,4,6,0,2,5,0,0,0,0,0,0,0,1185,0,No
18,5,19,0,0,5,0,0,0,0,0,0,0,1493,0,No
0,1,0,0,0,5,0,0,0,0,0,0,0,1609,0,No
4,1,4,0,0,4,0,0,0,0,0,0,0,1616,0,No
13,2,27,0,0,4,0,0,0,0,0,0,0,1010,1,No
6,1,8,0,0,4,0,0,0,0,0,0,0,1010,0,No
5,2,7,0,0,4,0,0,0,0,0,0,0,1010,0,No
8,1,8,0,0,5,0,0,0,0,0,0,0,1216,0,No
3,0,3,0,0,4,0,0,0,0,0,0,0,1609,0,No
0,1,0,0,0,5,0,0,0,0,0,0,0,1609,0,No
6,4,8,0,1,7,0,0,0,0,0,0,0,1216,0,No
6,2,6,0,0,4,0,0,0,0,0,0,0,1644,0,No
5,0,10,0,0,4,0,0,0,0,0,0,0,1493,0,No
4,0,4,0,0,3,0,0,0,0,0,0,0,1493,0,No
10,4,14,0,0,5,0,0,0,0,0,0,0,1609,0,No
5,3,7,0,0,5,0,0,0,0,0,0,0,1451,0,No
3,2,4,0,0,5,0,0,0,0,0,0,0,1655,0,No
0,1,0,0,1,4,0,0,0,0,0,0,0,1609,0,No
14,4,18,0,0,1,0,0,0,0,0,0,0,145,0,No
11,4,16,0,0,5,0,0,0,0,0,0,0,1609,0,Yes
4,2,4,0,0,4,0,0,0,0,0,0,0,1609,0,No
5,3,7,0,0,5,0,0,0,0,0,0,0,1451,0,No
3,2,4,0,0,5,0,0,0,0,0,0,0,1655,0,No
5,3,7,0,0,5,0,0,0,0,0,0,0,1609,0,No
4,2,4,0,0,4,0,0,0,0,0,0,0,1609,0,No
0,1,0,0,0,4,0,0,0,0,0,0,0,1609,0,No
0,1,0,0,0,4,0,0,0,0,0,0,0,1609,0,No
5,3,7,0,1,7,0,0,0,0,0,0,0,1609,0,No
4,2,4,0,0,4,0,0,0,0,0,0,0,1609,0,No
0,1,0,0,0,4,0,0,0,0,0,0,0,1609,0,No
18,6,43,0,0,6,0,0,0,0,0,0,0,1579,0,No
0,0,0,0,0,3,0,0,0,0,0,0,0,1616,0,No
11,4,16,0,0,5,0,0,0,0,0,0,0,1609,0,Yes
4,1,4,0,0,5,0,0,0,0,0,0,0,1655,0,No
5,3,7,0,0,5,0,0,0,0,0,0,0,1451,0,No
3,2,4,0,0,5,0,0,0,0,0,0,0,1655,0,No
5,3,7,0,0,5,0,0,0,0,0,0,0,1609,0,No
4,1,4,0,0,5,0,0,0,0,0,0,0,1655,0,No
0,1,0,0,0,4,0,0,0,0,0,0,0,1609,0,No
8,3,19,0,0,2,0,0,0,0,0,0,0,735,1,No
3,2,5,0,0,5,0,0,0,0,0,0,0,1655,0,No
0,1,0,0,0,4,0,0,0,0,0,0,0,1609,0,No
5,3,7,0,0,6,0,0,0,0,0,0,0,1609,0,No
4,1,4,0,0,5,0,0,0,0,0,0,0,1655,0,No
0,1,0,0,0,4,0,0,0,0,0,0,0,1609,0,No
51,18,95,0,1,5,0,0,0,0,0,0,0,1609,0,No
57,12,96,0,5,10,0,0,0,0,0,0,0,1609,1,No
10,4,14,0,0,5,0,0,0,0,0,0,0,1609,0,Yes
5,3,7,0,0,5,0,0,0,0,0,0,0,1451,0,No
3,2,4,0,0,5,0,0,0,0,0,0,0,1655,0,No
4,3,5,0,0,5,0,0,0,0,0,0,0,1609,0,No
0,1,0,0,1,4,0,0,0,0,0,0,0,1609,0,No
10,3,23,0,0,2,0,0,0,0,0,0,0,735,1,No
3,2,5,0,0,5,0,0,0,0,0,0,0,1655,0,No
0,1,0,0,1,4,0,0,0,0,0,0,0,1609,0,No
4,3,5,0,0,6,0,0,0,0,0,0,0,1609,0,No
0,1,0,0,1,4,0,0,0,0,0,0,0,1609,0,No
3,1,3,0,0,4,0,0,0,0,0,0,0,1655,0,No
4,2,4,0,0,4,0,0,0,0,0,0,0,1655,0,No
5,2,5,0,0,4,0,0,0,0,0,0,0,1655,0,No
5,2,5,0,0,4,0,0,0,0,0,0,0,1655,0,No
4,2,4,0,0,4,0,0,0,0,0,0,0,1655,0,No
2,1,2,0,0,5,0,0,0,0,0,0,0,1616,0,No
4,1,4,0,0,3,0,0,0,0,0,0,0,1616,0,No
5,2,5,0,0,4,0,0,0,0,0,0,0,1655,0,No
5,4,5,0,0,4,0,0,0,0,0,0,0,1655,0,No
6,3,6,0,0,4,0,0,0,0,0,0,0,1655,0,No
5,3,5,0,0,4,0,0,0,0,0,0,0,1655,0,No
5,4,5,0,0,4,0,0,0,0,0,0,0,1655,0,No
0,0,0,0,0,5,0,0,0,0,0,0,0,1616,0,No
4,2,4,0,0,4,0,0,0,0,0,0,0,1216,0,No
9,6,9,0,1,5,0,0,0,0,0,0,0,1616,0,No
7,3,7,0,1,4,0,0,0,0,0,0,0,1655,0,No
7,3,7,0,0,4,0,0,0,0,0,0,0,1655,0,No
8,6,8,0,0,4,0,0,0,0,0,0,0,1655,0,No
22,9,22,0,1,6,0,0,0,0,0,0,0,1655,0,No
5,4,5,0,0,4,0,0,0,0,0,0,0,1655,0,No
4,2,4,0,0,4,0,0,0,0,0,0,0,1655,0,No
4,4,4,0,0,6,0,0,0,0,0,0,0,1655,0,No
5,4,5,0,1,6,0,0,0,0,0,0,0,1655,0,No
10,4,10,0,1,4,0,0,0,0,0,0,0,1655,0,No
8,3,8,0,0,4,0,0,0,0,0,0,0,1655,0,No
15,6,15,0,1,6,0,0,0,0,0,0,0,1655,0,No
5,2,5,0,0,4,0,0,0,0,0,0,0,1655,0,No
5,4,5,0,0,4,0,0,0,0,0,0,0,1655,0,No
2,1,6,0,2,8,0,0,0,0,0,0,0,1612,2,No
9,3,17,0,2,4,0,0,0,0,0,0,0,1655,2,No
9,10,54,0,1,9,0,0,0,0,0,0,0,1399,3,No
3,2,5,0,0,4,0,0,0,0,0,0,0,1644,0,No
4,3,6,0,0,1,0,0,0,0,0,0,0,402,0,No
5,2,7,0,0,4,0,0,0,0,0,0,0,1644,0,Yes
5,8,11,17,1,4,15,15,13,13,1,2,2,1644,0,No
4,6,9,0,0,5,0,0,0,0,0,0,0,1644,0,No
2,3,6,0,1,7,0,0,0,0,0,0,0,1612,2,No
5,2,7,0,0,4,0,0,0,0,0,0,0,1644,0,No
5,10,11,0,0,4,0,0,0,0,0,0,0,1644,0,No
6,5,9,0,0,4,0,0,0,0,0,0,0,1644,0,No
5,4,8,0,0,4,0,0,0,0,0,0,0,1018,0,No
5,5,7,0,0,5,0,0,0,0,0,0,0,1579,0,No
4,3,4,0,0,4,0,0,0,0,0,0,0,1112,0,No
1,0,6,0,2,6,0,0,0,0,0,0,0,1655,0,No
9,9,27,0,0,5,0,0,0,0,0,0,0,1185,0,No
7,4,10,0,2,4,0,0,0,0,0,0,0,1010,0,No
8,4,12,0,0,4,0,0,0,0,0,0,0,1010,0,No
9,19,33,0,0,7,0,0,0,0,0,0,0,1600,0,No
30,36,89,0,2,7,0,0,0,0,0,0,0,1644,0,No
5,12,13,0,0,4,0,0,0,0,0,0,0,1644,0,No
11,2,19,0,1,1,0,0,0,0,0,0,0,334,1,No
4,5,6,0,0,1,0,0,0,0,0,0,0,58,0,No
20,17,116,0,5,7,0,0,0,0,0,0,0,1655,10,No
11,8,22,0,2,5,0,0,0,0,0,0,0,1644,0,No
9,7,14,0,0,4,0,0,0,0,0,0,0,1644,0,No
18,18,25,0,2,9,0,0,0,0,0,0,0,1399,0,No
5,2,7,0,0,4,0,0,0,0,0,0,0,1644,0,No
5,10,11,0,0,4,0,0,0,0,0,0,0,1644,0,No
4,0,4,0,0,1,0,0,0,0,0,0,0,103,0,No
7,0,11,0,0,1,0,0,0,0,0,0,0,103,0,No
3,0,3,0,0,1,0,0,0,0,0,0,0,103,0,No
3,0,3,0,0,1,0,0,0,0,0,0,0,103,1,No
7,0,8,0,1,1,0,0,0,0,0,0,0,334,0,No
3,0,3,0,0,1,0,0,0,0,0,0,0,103,0,No
30,0,55,0,0,1,0,0,0,0,0,0,0,145,1,No
0,0,0,0,0,1,0,0,0,0,0,0,0,145,1,No
0,0,0,0,0,0,0,0,0,0,0,0,0,0,0,No
2,2,2,0,0,4,0,0,0,0,0,0,0,1626,0,No
1,2,2,0,0,5,0,0,0,0,0,0,0,1655,0,No
1,4,6,0,0,6,0,0,0,0,0,0,0,1655,0,No
1,3,2,0,1,5,0,0,0,0,0,0,0,1626,0,No
0,1,0,0,0,5,0,0,0,0,0,0,0,1655,0,No
0,0,0,0,0,3,0,0,0,0,0,0,0,1655,0,No
1,1,1,0,0,3,0,0,0,0,0,0,0,1626,0,No
0,0,0,0,0,4,0,0,0,0,0,0,0,1451,0,No
1,6,10,0,2,9,0,0,0,0,0,0,0,1210,1,No
2,1,2,0,3,4,0,0,0,0,0,0,0,1655,0,No
0,0,0,0,0,4,0,0,0,0,0,0,0,1451,0,No
1,2,7,0,2,5,0,0,0,0,0,0,0,1451,1,No
0,0,0,0,0,4,0,0,0,0,0,0,0,1451,0,No
1,4,11,0,2,5,0,0,0,0,0,0,0,1451,2,No
0,0,0,0,0,4,0,0,0,0,0,0,0,1451,0,No
1,4,5,0,2,3,0,0,0,0,0,0,0,752,1,No
1,1,2,0,0,4,0,0,0,0,0,0,0,1451,0,No
0,0,0,0,0,4,0,0,0,0,0,0,0,1451,0,No
3,5,20,0,2,7,0,0,0,0,0,0,0,1451,1,No
4,1,7,0,2,5,0,0,0,0,0,0,0,1451,0,No
0,0,0,0,0,4,0,0,0,0,0,0,0,1216,0,No
1,3,5,0,2,5,0,0,0,0,0,0,0,1112,0,No
0,0,0,0,0,4,0,0,0,0,0,0,0,1451,0,No
1,8,7,0,3,6,0,0,0,0,0,0,0,1185,3,No
0,0,0,0,0,4,0,0,0,0,0,0,0,1216,0,No
1,4,9,0,2,5,0,0,0,0,0,0,0,1451,1,No
0,0,0,0,0,4,0,0,0,0,0,0,0,1216,0,No
1,3,5,0,2,5,0,0,0,0,0,0,0,1216,1,No
0,0,0,0,0,4,0,0,0,0,0,0,0,1216,0,No
1,2,7,0,2,8,0,0,0,0,0,0,0,1216,1,No
0,0,0,0,0,4,0,0,0,0,0,0,0,1451,0,No
0,0,0,0,1,4,0,0,0,0,0,0,0,1451,0,No
2,15,18,0,1,1,0,0,0,0,0,0,0,422,0,No
1,3,8,0,2,5,0,0,0,0,0,0,0,1451,0,No
0,0,0,0,0,4,0,0,0,0,0,0,0,1451,0,No
1,2,3,0,2,3,0,0,0,0,0,0,0,752,0,No
0,0,0,0,0,5,0,0,0,0,0,0,0,1451,0,No
3,14,24,0,2,8,0,0,0,0,0,0,0,1122,0,Yes
1,3,24,0,2,7,0,0,0,0,0,0,0,1115,0,No
0,0,0,0,0,4,0,0,0,0,0,0,0,1616,0,No
12,3,61,0,0,8,0,0,0,0,0,0,0,1172,0,No
0,0,0,0,0,4,0,0,0,0,0,0,0,1616,0,No
0,0,0,0,0,5,0,0,0,0,0,0,0,1616,0,No
1,2,1,0,0,4,0,0,0,0,0,0,0,1185,1,No
1,8,18,0,0,5,0,0,0,0,0,0,0,1185,1,No
0,0,0,0,0,1,0,0,0,0,0,0,0,754,1,No
1,1,1,0,1,6,0,0,0,0,0,0,0,1115,0,No
18,4,18,0,0,4,0,0,0,0,0,0,0,668,0,No
4,3,4,0,0,4,0,0,0,0,0,0,0,699,0,No
2,2,2,0,0,6,0,0,0,0,0,0,0,1216,2,No
2,2,2,0,0,5,0,0,0,0,0,0,0,1616,0,No
17,1,44,0,1,5,0,0,0,0,0,0,0,1570,0,No
1,0,1,0,1,4,0,0,0,0,0,0,0,1655,0,No
3,3,3,0,0,4,0,0,0,0,0,0,0,1007,0,No
4,2,4,0,2,2,0,0,0,0,0,0,0,755,0,No
0,0,0,0,0,6,0,0,0,0,0,0,0,1616,0,No
11,25,66,10,4,6,7,7,4,4,1,1,1,755,8,No
12,0,22,0,0,2,0,0,0,0,0,0,0,662,2,No
23,12,102,0,0,8,0,0,0,0,0,0,0,1528,44,No
3,9,19,0,0,2,0,0,0,0,0,0,0,152,1,No
4,5,10,0,0,5,0,0,0,0,0,0,0,733,0,No
2,7,11,0,4,4,0,0,0,0,0,0,0,711,0,No
3,9,19,0,0,2,0,0,0,0,0,0,0,152,3,No
2,7,12,0,1,4,0,0,0,0,0,0,0,755,1,No
26,29,81,0,12,10,0,0,0,0,0,0,0,1593,1,No
0,0,0,0,0,3,0,0,0,0,0,0,0,1616,0,No
4,9,7,0,3,6,0,0,0,0,0,0,0,1208,1,No
1,0,1,0,1,3,0,0,0,0,0,0,0,1616,0,No
2,2,5,0,2,3,0,0,0,0,0,0,0,1216,2,No
3,1,12,0,0,4,0,0,0,0,0,0,0,1084,1,No
1,0,1,0,1,3,0,0,0,0,0,0,0,1616,0,No
0,0,0,0,0,3,0,0,0,0,0,0,0,1616,0,No
4,1,5,0,1,4,0,0,0,0,0,0,0,1216,0,No
0,0,0,0,0,4,0,0,0,0,0,0,0,1216,0,No
2,10,11,5,0,4,2,2,-1,0,1,1,1,1010,1,No
0,0,0,0,0,3,0,0,0,0,0,0,0,1216,1,No
2,1,2,0,0,5,0,0,0,0,0,0,0,1010,0,No
0,1,0,0,0,4,0,0,0,0,0,0,0,1216,0,No
7,16,42,5,4,5,3,3,1,1,1,1,2,1216,4,No
2,2,11,0,1,3,0,0,0,0,0,0,0,985,0,No
7,19,49,5,4,5,3,3,1,1,1,1,2,1216,5,No
10,0,10,0,0,1,0,0,0,0,0,0,0,381,0,No
1,0,4,0,0,0,0,0,0,0,0,0,0,0,0,No
2,1,4,0,1,5,0,0,0,0,0,0,0,1655,0,No
6,1,6,0,0,5,0,0,0,0,0,0,0,1655,0,No
7,4,7,0,0,7,0,0,0,0,0,0,0,1616,0,No
0,1,0,0,1,5,0,0,0,0,0,0,0,1616,1,No
8,14,15,21,3,8,18,17,15,15,5,16,28,1580,1,No
14,16,46,35,3,9,18,10,1,4,5,7,10,1595,5,No
1,3,5,0,2,2,0,0,0,0,0,0,0,376,4,No
3,4,4,0,0,4,0,0,0,0,0,0,0,1434,0,No
12,20,37,0,2,7,0,0,0,0,0,0,0,1377,4,No
6,5,18,0,2,8,0,0,0,0,0,0,0,1112,4,No
13,13,30,0,5,8,0,0,0,0,0,0,0,1172,1,No
13,17,46,0,3,9,0,0,0,0,0,0,0,1010,6,No
10,24,39,33,4,8,25,15,17,13,5,7,10,1593,4,Yes
19,27,55,27,8,10,24,24,21,21,3,5,5,1584,3,No
7,17,47,0,2,7,0,0,0,0,0,0,0,1612,1,No
7,7,22,4,1,1,2,2,0,0,2,7,8,58,5,No
16,27,62,0,6,8,0,0,0,0,0,0,0,1489,6,No
0,0,0,0,0,7,0,0,0,0,0,0,0,1655,0,No
1,0,1,0,0,4,0,0,0,0,0,0,0,1655,0,No
0,0,0,0,1,2,0,0,0,0,0,0,0,376,0,No
30,33,85,0,14,10,0,0,0,0,0,0,0,1622,1,No
7,11,10,0,0,2,0,0,0,0,0,0,0,481,0,No
11,6,12,0,2,6,0,0,0,0,0,0,0,1105,0,No
17,62,206,0,7,8,0,0,0,0,0,0,0,1583,8,Yes
2,2,2,0,0,4,0,0,0,0,0,0,0,1616,0,No
3,11,5,0,0,4,0,0,0,0,0,0,0,1580,0,No
5,11,36,0,0,6,0,0,0,0,0,0,0,1595,0,No
2,2,2,0,0,5,0,0,0,0,0,0,0,1616,0,No
3,3,3,0,1,5,0,0,0,0,0,0,0,1112,0,No
4,18,38,0,3,5,0,0,0,0,0,0,0,1171,0,No
7,12,23,0,0,5,0,0,0,0,0,0,0,1010,1,No
13,24,57,0,4,6,0,0,0,0,0,0,0,1593,0,No
7,39,74,0,5,7,0,0,0,0,0,0,0,1605,5,Yes
12,14,20,0,3,5,0,0,0,0,0,0,0,1607,0,No
1,2,1,0,0,0,0,0,0,0,0,0,0,0,0,No
5,10,29,0,0,1,0,0,0,0,0,0,0,145,0,No
3,3,3,0,0,1,0,0,0,0,0,0,0,58,0,No
7,33,67,0,3,8,0,0,0,0,0,0,0,1493,1,No
7,0,9,0,0,4,0,0,0,0,0,0,0,1622,0,No
17,32,72,0,12,11,0,0,0,0,0,0,0,1605,4,Yes
3,0,18,0,1,3,0,0,0,0,0,0,0,667,1,No
10,11,46,0,3,6,0,0,0,0,0,0,0,667,1,No
5,0,5,0,0,4,0,0,0,0,0,0,0,1591,1,No
2,2,4,0,0,4,0,0,0,0,0,0,0,804,0,No
9,17,37,0,9,9,0,0,0,0,0,0,0,1431,5,No
1,8,10,0,2,4,0,0,0,0,0,0,0,1431,0,No
7,10,29,0,1,6,0,0,0,0,0,0,0,1655,1,No
1,1,4,0,0,1,0,0,0,0,0,0,0,349,0,No
8,7,8,0,1,4,0,0,0,0,0,0,0,667,0,No
13,10,15,0,1,5,0,0,0,0,0,0,0,666,0,No
2,4,2,0,0,5,0,0,0,0,0,0,0,1655,0,No
5,7,16,0,1,4,0,0,0,0,0,0,0,682,1,No
5,4,5,0,1,3,0,0,0,0,0,0,0,661,0,No
7,10,19,0,2,4,0,0,0,0,0,0,0,662,0,No
14,11,15,0,2,3,0,0,0,0,0,0,0,661,0,No
11,16,17,0,0,5,0,0,0,0,0,0,0,666,1,No
18,14,32,6,5,4,6,6,6,6,3,5,5,660,0,No
5,6,5,0,0,4,0,0,0,0,0,0,0,663,0,No
6,4,6,0,1,3,0,0,0,0,0,0,0,661,0,No
16,19,21,0,2,5,0,0,0,0,0,0,0,656,0,No
7,7,10,0,1,4,0,0,0,0,0,0,0,661,0,No
18,17,32,0,5,6,0,0,0,0,0,0,0,657,0,No
6,4,6,0,1,7,0,0,0,0,0,0,0,1655,0,No
6,5,16,0,1,3,0,0,0,0,0,0,0,654,0,No
2,1,2,0,1,6,0,0,0,0,0,0,0,1616,2,No
11,1,11,0,0,2,0,0,0,0,0,0,0,313,3,No
11,2,11,0,0,8,0,0,0,0,0,0,0,1091,3,No
9,2,9,0,0,2,0,0,0,0,0,0,0,313,12,No
9,3,9,0,0,7,0,0,0,0,0,0,0,1091,9,No
1,1,1,0,1,6,0,0,0,0,0,0,0,1616,0,No
10,3,10,0,0,2,0,0,0,0,0,0,0,143,0,No
15,3,20,0,0,6,0,0,0,0,0,0,0,1108,0,No
7,26,52,25,1,3,17,17,9,9,1,2,2,143,4,No
15,23,63,60,1,2,30,30,0,0,1,2,4,143,12,No
19,16,90,2,1,3,2,2,2,2,1,2,2,143,22,No
6,16,49,0,3,6,0,0,0,0,0,0,0,754,1,No
2,12,2,0,0,2,0,0,0,0,0,0,0,313,0,No
5,13,18,0,0,3,0,0,0,0,0,0,0,158,1,No
7,28,29,0,3,5,0,0,0,0,0,0,0,692,0,No
4,10,14,0,0,3,0,0,0,0,0,0,0,158,2,No
3,17,16,15,1,3,6,4,-3,0,2,3,6,313,4,No
10,10,15,2,1,2,1,1,0,0,1,2,4,143,0,No
10,14,18,0,0,1,0,0,0,0,0,0,0,143,2,No
3,18,31,8,3,7,3,3,-2,0,1,1,2,754,1,No
10,10,15,0,0,1,0,0,0,0,0,0,0,143,0,No
9,12,22,0,0,2,0,0,0,0,0,0,0,143,2,No
3,0,3,0,0,3,0,0,0,0,0,0,0,1655,0,No
37,63,193,0,5,6,0,0,0,0,0,0,0,1583,8,No
1,0,16,0,0,1,0,0,0,0,0,0,0,137,0,No
1,0,10,0,0,1,0,0,0,0,0,0,0,137,1,No
12,1,47,2,0,8,1,1,0,0,1,1,1,1150,7,No
5,4,58,0,3,7,0,0,0,0,0,0,0,1039,4,Yes
3,0,38,0,0,1,0,0,0,0,0,0,0,592,9,No
13,1,16,0,2,1,0,0,0,0,0,0,0,626,0,No
7,4,22,0,1,4,0,0,0,0,0,0,0,804,3,No
8,2,19,0,0,5,0,0,0,0,0,0,0,1354,1,No
1,0,2,0,0,4,0,0,0,0,0,0,0,1655,0,No
1,0,9,0,0,2,0,0,0,0,0,0,0,137,3,No
2,0,6,0,0,2,0,0,0,0,0,0,0,137,3,No
0,0,0,0,0,5,0,0,0,0,0,0,0,1616,0,No
10,34,133,0,9,7,0,0,0,0,0,0,0,990,16,No
2,0,4,2,1,2,1,1,0,0,1,1,3,137,0,No
8,0,10,0,0,1,0,0,0,0,0,0,0,104,0,No
4,0,4,0,0,6,0,0,0,0,0,0,0,1616,1,No
4,0,6,0,0,1,0,0,0,0,0,0,0,104,2,No
1,0,9,8,1,2,8,8,8,8,1,1,3,137,0,No
1,1,7,59,1,1,59,59,59,59,1,1,3,18,0,No
9,13,33,0,0,5,0,0,0,0,0,0,0,1216,2,No
1,0,5,0,1,1,0,0,0,0,0,0,0,599,0,No
7,0,7,0,0,1,0,0,0,0,0,0,0,104,0,No
5,1,14,0,1,2,0,0,0,0,0,0,0,641,0,No
6,1,6,0,1,3,0,0,0,0,0,0,0,641,0,No
7,0,8,0,0,4,0,0,0,0,0,0,0,1655,0,No
2,0,4,0,0,4,0,0,0,0,0,0,0,1655,0,No
2,0,2,0,0,5,0,0,0,0,0,0,0,1616,0,No
9,7,44,0,3,5,0,0,0,0,0,0,0,1313,10,Yes
14,0,18,0,1,5,0,0,0,0,0,0,0,1039,0,No
2,0,6,0,0,4,0,0,0,0,0,0,0,1039,1,No
3,2,4,0,1,5,0,0,0,0,0,0,0,1271,3,No
9,3,9,0,2,5,0,0,0,0,0,0,0,733,0,No
0,0,0,0,1,6,0,0,0,0,0,0,0,1616,0,No
0,1,0,0,1,5,0,0,0,0,0,0,0,1216,0,No
3,0,3,0,1,6,0,0,0,0,0,0,0,1616,0,No
9,1,9,0,1,4,0,0,0,0,0,0,0,1105,0,Yes
1,7,3,0,2,4,0,0,0,0,0,0,0,671,1,No
0,0,0,0,0,3,0,0,0,0,0,0,0,1616,0,No
5,9,5,0,0,4,0,0,0,0,0,0,0,733,0,No
12,11,12,0,1,4,0,0,0,0,0,0,0,733,0,No
4,7,4,0,0,3,0,0,0,0,0,0,0,733,0,No
19,9,19,0,1,9,0,0,0,0,0,0,0,1123,0,No
18,13,25,0,6,8,0,0,0,0,0,0,0,1140,0,No
12,7,12,0,1,8,0,0,0,0,0,0,0,1140,1,No
3,1,8,0,0,1,0,0,0,0,0,0,0,367,3,No
37,21,109,42,6,8,25,18,8,4,5,5,6,1129,11,Yes
3,2,6,0,1,7,0,0,0,0,0,0,0,1129,3,No
1,1,1,0,0,3,0,0,0,0,0,0,0,1216,0,No
14,3,16,0,0,5,0,0,0,0,0,0,0,1117,2,No
17,2,26,0,0,5,0,0,0,0,0,0,0,1117,1,No
1,0,1,0,0,3,0,0,0,0,0,0,0,1216,0,No
4,0,4,0,0,3,0,0,0,0,0,0,0,1216,0,No
21,4,24,0,0,5,0,0,0,0,0,0,0,1117,2,No
22,7,38,0,1,5,0,0,0,0,0,0,0,1117,1,No
2,0,2,0,1,5,0,0,0,0,0,0,0,1655,1,No
1,1,1,0,1,4,0,0,0,0,0,0,0,1216,0,No
1,4,2,6,0,6,3,3,0,0,1,1,6,1129,1,No
1,2,2,2,1,4,1,1,0,0,1,1,6,1129,0,No
1,3,1,2,0,3,1,1,0,0,1,1,6,1129,0,No
1,5,2,8,0,5,3,3,-2,0,1,1,6,1129,0,No
1,3,2,8,0,3,3,3,-2,0,1,1,6,1129,0,No
1,0,1,0,0,3,0,0,0,0,0,0,0,1216,1,No
1,0,1,0,0,3,0,0,0,0,0,0,0,1216,1,No
1,5,3,4,0,5,2,2,0,0,1,1,6,1129,0,No
0,0,0,0,1,5,0,0,0,0,0,0,0,1616,1,No
3,0,3,0,1,1,0,0,0,0,0,0,0,138,0,No
4,1,7,0,1,1,0,0,0,0,0,0,0,138,3,No
3,3,3,0,1,1,0,0,0,0,0,0,0,138,3,No
6,0,6,0,0,1,0,0,0,0,0,0,0,138,6,No
2,0,2,0,0,1,0,0,0,0,0,0,0,138,3,No
2,0,5,0,0,1,0,0,0,0,0,0,0,138,1,No
2,0,5,0,0,1,0,0,0,0,0,0,0,138,1,No
2,0,2,0,0,1,0,0,0,0,0,0,0,138,1,No
1,0,1,0,0,1,0,0,0,0,0,0,0,138,1,No
0,0,0,0,0,1,0,0,0,0,0,0,0,138,1,Yes
0,0,0,0,0,1,0,0,0,0,0,0,0,47,1,No
0,0,0,0,0,1,0,0,0,0,0,0,0,47,1,No
0,0,0,0,0,1,0,0,0,0,0,0,0,138,1,Yes
0,0,0,2,0,2,1,1,0,0,2,2,2,47,1,Yes
0,0,0,0,0,1,0,0,0,0,0,0,0,138,1,Yes
0,0,0,0,0,2,0,0,0,0,0,0,0,138,1,No
1,6,12,9,1,3,6,6,3,3,1,2,2,138,5,No
1,11,23,0,1,2,0,0,0,0,0,0,0,138,32,No
2,5,7,0,0,1,0,0,0,0,0,0,0,138,8,No
3,1,15,0,0,2,0,0,0,0,0,0,0,137,8,No
7,0,16,0,0,2,0,0,0,0,0,0,0,138,4,Yes
7,0,16,0,0,1,0,0,0,0,0,0,0,138,11,No
6,0,7,0,0,1,0,0,0,0,0,0,0,100,1,No
2,2,4,0,0,1,0,0,0,0,0,0,0,138,3,No
9,0,29,8,0,3,6,6,4,4,1,2,2,107,2,No
1,0,2,0,0,1,0,0,0,0,0,0,0,138,1,No
1,0,2,0,0,1,0,0,0,0,0,0,0,138,0,No
4,0,13,0,0,1,0,0,0,0,0,0,0,138,1,No
4,2,23,0,0,1,0,0,0,0,0,0,0,138,1,No
5,2,15,0,0,2,0,0,0,0,0,0,0,138,2,No
2,0,6,0,0,3,0,0,0,0,0,0,0,1144,2,No
6,0,19,0,1,3,0,0,0,0,0,0,0,1144,1,No
3,0,9,0,1,2,0,0,0,0,0,0,0,673,5,No
2,0,9,0,1,3,0,0,0,0,0,0,0,1144,2,No
5,0,17,0,0,3,0,0,0,0,0,0,0,1144,1,No
1,0,10,0,0,1,0,0,0,0,0,0,0,783,5,No
4,0,5,0,0,2,0,0,0,0,0,0,0,736,1,No
18,9,20,0,1,1,0,0,0,0,0,0,0,497,0,Yes
21,3,29,0,0,1,0,0,0,0,0,0,0,497,1,Yes
3,4,17,0,1,3,0,0,0,0,0,0,0,737,4,No
2,0,4,0,0,1,0,0,0,0,0,0,0,556,0,Yes
3,4,3,0,0,4,0,0,0,0,0,0,0,1729,0,No
7,1,14,0,0,1,0,0,0,0,0,0,0,177,0,No
11,1,13,0,0,1,0,0,0,0,0,0,0,244,0,No
0,0,0,0,0,6,0,0,0,0,0,0,0,1290,1,No
0,0,0,0,0,5,0,0,0,0,0,0,0,1290,0,No
0,1,0,0,0,4,0,0,0,0,0,0,0,1290,0,No
0,0,0,0,0,4,0,0,0,0,0,0,0,1290,0,No
9,1,14,0,0,5,0,0,0,0,0,0,0,1645,0,No
3,0,5,0,0,5,0,0,0,0,0,0,0,1729,0,No
5,1,6,0,0,4,0,0,0,0,0,0,0,1645,0,No
3,0,4,0,0,5,0,0,0,0,0,0,0,1729,0,No
2,1,2,0,1,4,0,0,0,0,0,0,0,1729,0,No
5,2,5,0,0,2,0,0,0,0,0,0,0,396,0,No
46,0,65,0,1,4,0,0,0,0,0,0,0,1665,0,No
9,1,9,0,0,2,0,0,0,0,0,0,0,757,0,No
13,0,20,0,0,5,0,0,0,0,0,0,0,1645,0,No
0,1,0,0,0,0,0,0,0,0,0,0,0,0,0,No
0,0,0,0,0,0,0,0,0,0,0,0,0,0,0,No
2,1,2,0,0,5,0,0,0,0,0,0,0,1290,0,No
1,0,1,0,0,4,0,0,0,0,0,0,0,1084,0,No
6,2,6,0,0,5,0,0,0,0,0,0,0,1084,0,No
11,1,13,0,0,3,0,0,0,0,0,0,0,1059,0,No
6,2,6,0,0,5,0,0,0,0,0,0,0,1084,0,No
0,1,0,0,0,0,0,0,0,0,0,0,0,0,0,No
3,1,3,0,0,0,0,0,0,0,0,0,0,0,0,No
9,1,14,0,0,1,0,0,0,0,0,0,0,396,1,No
5,2,5,0,0,1,0,0,0,0,0,0,0,405,0,No
11,1,11,0,0,0,0,0,0,0,0,0,0,0,0,No
0,1,0,0,0,1,0,0,0,0,0,0,0,391,0,No
3,0,4,0,2,1,0,0,0,0,0,0,0,409,1,No
7,0,7,0,0,1,0,0,0,0,0,0,0,409,0,No
2,0,2,0,0,3,0,0,0,0,0,0,0,1690,0,No
2,4,7,0,0,1,0,0,0,0,0,0,0,224,1,No
2,0,4,0,0,0,0,0,0,0,0,0,0,0,0,No
11,0,11,0,1,2,0,0,0,0,0,0,0,409,0,No
4,0,4,0,1,2,0,0,0,0,0,0,0,409,1,No
9,0,9,0,1,2,0,0,0,0,0,0,0,409,0,No
2,0,2,0,1,2,0,0,0,0,0,0,0,409,0,No
7,4,7,0,1,3,0,0,0,0,0,0,0,756,0,No
13,7,13,0,1,3,0,0,0,0,0,0,0,756,0,No
2,1,2,0,0,4,0,0,0,0,0,0,0,1729,0,No
0,0,0,0,1,1,0,0,0,0,0,0,0,408,16,No
5,3,5,0,1,3,0,0,0,0,0,0,0,756,1,No
5,1,5,0,0,4,0,0,0,0,0,0,0,751,0,No
7,3,7,0,3,3,0,0,0,0,0,0,0,752,0,No
13,5,13,0,2,3,0,0,0,0,0,0,0,755,0,No
10,8,10,11,0,3,0,0,-11,0,2,6,7,755,0,No
18,8,18,0,3,4,0,0,0,0,0,0,0,757,0,No
5,3,5,0,0,3,0,0,0,0,0,0,0,751,0,No
6,1,6,0,0,4,0,0,0,0,0,0,0,751,0,No
16,11,16,0,3,4,0,0,0,0,0,0,0,752,0,No
7,2,7,0,1,7,0,0,0,0,0,0,0,1729,0,No
18,10,18,0,3,6,0,0,0,0,0,0,0,757,0,No
6,2,6,0,1,6,0,0,0,0,0,0,0,1729,1,No
4,2,4,0,1,4,0,0,0,0,0,0,0,756,0,No
6,0,8,0,0,7,0,0,0,0,0,0,0,1696,0,No
10,1,14,0,0,4,0,0,0,0,0,0,0,1567,0,No
8,2,8,0,0,4,0,0,0,0,0,0,0,1729,0,No
2,1,2,0,0,4,0,0,0,0,0,0,0,1729,0,No
3,0,7,0,0,5,0,0,0,0,0,0,0,1729,0,No
15,2,15,0,0,5,0,0,0,0,0,0,0,1290,0,No
9,1,11,0,0,2,0,0,0,0,0,0,0,553,0,No
9,1,13,0,0,6,0,0,0,0,0,0,0,1567,0,No
3,2,3,0,0,4,0,0,0,0,0,0,0,1729,0,No
5,1,5,0,0,5,0,0,0,0,0,0,0,1729,0,No
0,0,0,0,0,1,0,0,0,0,0,0,0,391,0,No
11,2,11,0,0,4,0,0,0,0,0,0,0,1667,0,No
3,1,3,0,0,4,0,0,0,0,0,0,0,1729,2,No
19,3,21,0,0,7,0,0,0,0,0,0,0,1669,0,No
2,0,3,0,1,6,0,0,0,0,0,0,0,1105,0,No
10,1,10,0,0,1,0,0,0,0,0,0,0,429,0,No
2,0,2,0,0,4,0,0,0,0,0,0,0,1686,0,No
7,2,8,0,2,2,0,0,0,0,0,0,0,450,0,No
4,2,4,0,0,4,0,0,0,0,0,0,0,1729,0,No
16,3,16,0,0,6,0,0,0,0,0,0,0,1674,0,No
10,2,23,17,2,5,7,7,-3,0,3,5,10,809,1,No
4,0,4,0,0,5,0,0,0,0,0,0,0,1729,0,No
26,3,26,0,0,7,0,0,0,0,0,0,0,1186,0,No
13,1,13,0,0,6,0,0,0,0,0,0,0,1179,0,No
2,2,2,0,0,4,0,0,0,0,0,0,0,1729,0,No
10,3,10,0,0,1,0,0,0,0,0,0,0,252,1,No
18,3,18,0,0,4,0,0,0,0,0,0,0,1567,0,No
4,0,4,0,0,2,0,0,0,0,0,0,0,391,0,No
2,0,2,0,0,4,0,0,0,0,0,0,0,1290,0,No
18,2,26,0,0,5,0,0,0,0,0,0,0,1084,0,No
40,3,40,0,1,5,0,0,0,0,0,0,0,1665,0,No
35,0,39,0,1,5,0,0,0,0,0,0,0,1658,0,No
12,0,16,0,0,5,0,0,0,0,0,0,0,1729,0,No
24,2,25,0,0,6,0,0,0,0,0,0,0,1729,0,No
4,1,4,0,0,4,0,0,0,0,0,0,0,1729,0,No
2,2,2,0,0,4,0,0,0,0,0,0,0,1729,0,No
6,0,6,0,0,5,0,0,0,0,0,0,0,1290,0,No
2,0,2,0,0,4,0,0,0,0,0,0,0,1567,0,No
24,0,30,0,0,6,0,0,0,0,0,0,0,1696,1,No
2,0,2,0,0,5,0,0,0,0,0,0,0,1729,0,No
17,2,17,0,0,4,0,0,0,0,0,0,0,1192,0,No
20,2,27,0,0,6,0,0,0,0,0,0,0,1192,3,No
0,1,0,0,0,0,0,0,0,0,0,0,0,0,0,No
0,1,0,0,0,4,0,0,0,0,0,0,0,1690,1,No
18,1,22,0,0,5,0,0,0,0,0,0,0,1690,0,No
0,0,0,0,0,5,0,0,0,0,0,0,0,1690,0,No
2,0,4,0,0,4,0,0,0,0,0,0,0,1729,3,No
1,0,1,0,2,5,0,0,0,0,0,0,0,1729,1,No
7,4,10,0,2,3,0,0,0,0,0,0,0,1043,0,No
2,0,2,0,0,6,0,0,0,0,0,0,0,1690,0,No
4,0,7,0,1,2,0,0,0,0,0,0,0,458,1,No
1,0,1,0,0,6,0,0,0,0,0,0,0,1690,1,No
16,1,18,0,0,5,0,0,0,0,0,0,0,1729,1,No
6,1,6,0,1,5,0,0,0,0,0,0,0,1729,1,No
1,0,1,0,0,4,0,0,0,0,0,0,0,1690,0,No
0,0,0,0,0,5,0,0,0,0,0,0,0,1690,0,No
2,0,2,0,2,3,0,0,0,0,0,0,0,1016,0,No
5,0,18,0,2,7,0,0,0,0,0,0,0,1690,9,No
2,0,2,0,0,4,0,0,0,0,0,0,0,1690,0,No
1,0,1,0,0,5,0,0,0,0,0,0,0,1690,0,No
0,0,0,0,1,3,0,0,0,0,0,0,0,710,0,No
0,0,0,0,0,5,0,0,0,0,0,0,0,1690,0,No
46,1,50,0,0,7,0,0,0,0,0,0,0,1259,0,No
2,0,2,0,0,6,0,0,0,0,0,0,0,1690,1,No
2,0,5,0,0,5,0,0,0,0,0,0,0,1290,1,No
0,0,0,0,0,4,0,0,0,0,0,0,0,1690,0,No
2,0,3,0,0,5,0,0,0,0,0,0,0,1690,1,No
0,0,0,0,0,5,0,0,0,0,0,0,0,1290,0,No
0,0,0,0,0,4,0,0,0,0,0,0,0,1690,0,No
1,0,1,0,0,5,0,0,0,0,0,0,0,1690,1,No
0,0,0,0,0,5,0,0,0,0,0,0,0,1690,0,No
0,0,0,0,0,5,0,0,0,0,0,0,0,1690,0,No
0,0,0,0,1,6,0,0,0,0,0,0,0,1690,0,No
2,4,5,0,1,4,0,0,0,0,0,0,0,1290,3,No
1,0,2,0,0,5,0,0,0,0,0,0,0,1690,0,No
8,2,9,0,0,8,0,0,0,0,0,0,0,1690,0,No
2,0,5,0,0,6,0,0,0,0,0,0,0,1290,2,No
0,0,0,0,0,4,0,0,0,0,0,0,0,1690,0,No
0,0,0,0,0,5,0,0,0,0,0,0,0,1690,0,No
0,0,0,0,0,4,0,0,0,0,0,0,0,1290,0,No
2,0,2,0,0,0,0,0,0,0,0,0,0,0,0,No
0,1,0,0,0,4,0,0,0,0,0,0,0,1690,0,No
10,13,70,0,1,7,0,0,0,0,0,0,0,1172,0,No
4,0,23,0,0,1,0,0,0,0,0,0,0,552,4,No
5,4,10,0,2,4,0,0,0,0,0,0,0,741,1,No
2,4,19,0,2,2,0,0,0,0,0,0,0,450,2,No
3,1,4,0,0,1,0,0,0,0,0,0,0,391,1,No
0,0,0,0,0,1,0,0,0,0,0,0,0,391,0,No
0,0,0,0,0,1,0,0,0,0,0,0,0,391,0,No
0,0,0,0,0,1,0,0,0,0,0,0,0,391,0,No
0,0,0,0,0,1,0,0,0,0,0,0,0,391,0,No
0,0,0,0,0,1,0,0,0,0,0,0,0,391,0,No
0,0,0,0,0,2,0,0,0,0,0,0,0,391,0,No
0,0,0,0,0,1,0,0,0,0,0,0,0,391,0,No
0,0,0,0,0,1,0,0,0,0,0,0,0,391,0,No
0,0,0,0,1,6,0,0,0,0,0,0,0,1690,0,No
0,0,0,0,0,1,0,0,0,0,0,0,0,391,0,No
0,0,0,0,0,1,0,0,0,0,0,0,0,391,0,No
0,1,0,0,0,1,0,0,0,0,0,0,0,391,0,No
14,20,29,0,2,6,0,0,0,0,0,0,0,1690,0,No
1,2,8,0,1,3,0,0,0,0,0,0,0,1553,1,No
22,3,28,0,3,8,0,0,0,0,0,0,0,1690,0,No
1,0,1,0,0,1,0,0,0,0,0,0,0,479,0,No
5,1,14,0,0,2,0,0,0,0,0,0,0,97,0,No
4,2,10,0,2,7,0,0,0,0,0,0,0,1182,2,No
3,0,3,0,0,2,0,0,0,0,0,0,0,891,0,No
0,0,0,0,0,3,0,0,0,0,0,0,0,622,0,No
0,0,0,0,0,2,0,0,0,0,0,0,0,622,0,No
0,0,0,0,0,4,0,0,0,0,0,0,0,1690,0,No
3,1,4,0,0,5,0,0,0,0,0,0,0,1290,2,No
6,0,9,0,0,4,0,0,0,0,0,0,0,1071,0,No
3,0,3,0,0,2,0,0,0,0,0,0,0,728,1,No
2,0,2,0,0,5,0,0,0,0,0,0,0,1290,0,No
0,0,0,0,0,3,0,0,0,0,0,0,0,1690,0,No
10,0,20,0,3,6,0,0,0,0,0,0,0,1444,2,No
7,2,12,0,0,4,0,0,0,0,0,0,0,1449,1,No
1,1,4,0,0,3,0,0,0,0,0,0,0,1729,1,No
1,6,3,0,1,4,0,0,0,0,0,0,0,1359,0,No
2,0,3,0,0,3,0,0,0,0,0,0,0,1729,0,No
7,0,12,0,0,5,0,0,0,0,0,0,0,1289,1,No
2,3,12,0,2,6,0,0,0,0,0,0,0,1407,2,No
2,0,7,0,1,5,0,0,0,0,0,0,0,1409,0,No
3,0,16,0,0,6,0,0,0,0,0,0,0,1518,0,No
5,1,5,0,0,1,0,0,0,0,0,0,0,456,0,No
3,2,3,0,0,4,0,0,0,0,0,0,0,1729,0,No
2,0,2,0,0,5,0,0,0,0,0,0,0,1690,1,No
12,3,12,0,0,4,0,0,0,0,0,0,0,1729,0,No
14,10,52,0,0,5,0,0,0,0,0,0,0,1072,3,No
2,0,6,0,0,1,0,0,0,0,0,0,0,213,0,No
3,3,6,0,0,1,0,0,0,0,0,0,0,213,2,No
1,0,1,0,1,7,0,0,0,0,0,0,0,1729,0,No
8,3,28,0,0,4,0,0,0,0,0,0,0,1071,1,No
2,0,4,0,0,1,0,0,0,0,0,0,0,728,0,No
2,8,15,0,1,1,0,0,0,0,0,0,0,90,0,No
4,13,4,0,2,6,0,0,0,0,0,0,0,1690,0,No
4,6,6,0,1,7,0,0,0,0,0,0,0,1289,1,No
2,2,2,0,0,5,0,0,0,0,0,0,0,1359,0,No
0,0,0,0,0,2,0,0,0,0,0,0,0,479,0,No
8,8,9,0,1,8,0,0,0,0,0,0,0,1289,0,No
0,0,0,0,0,4,0,0,0,0,0,0,0,1690,0,No
10,12,29,0,5,6,0,0,0,0,0,0,0,1189,2,No
0,1,0,0,1,5,0,0,0,0,0,0,0,1690,0,No
6,2,10,0,2,8,0,0,0,0,0,0,0,1690,2,No
0,0,0,0,1,5,0,0,0,0,0,0,0,1690,0,No
6,7,7,0,4,3,0,0,0,0,0,0,0,688,1,No
4,2,4,0,0,3,0,0,0,0,0,0,0,688,0,No
3,5,8,1,3,8,1,1,1,1,1,3,4,1359,1,No
38,22,58,0,7,8,0,0,0,0,0,0,0,1690,15,No
4,5,5,0,0,2,0,0,0,0,0,0,0,129,2,No
3,5,13,0,0,2,0,0,0,0,0,0,0,694,0,No
13,13,38,0,10,8,0,0,0,0,0,0,0,1665,5,No
4,6,12,0,3,7,0,0,0,0,0,0,0,1665,1,No
11,4,12,0,3,7,0,0,0,0,0,0,0,1638,1,No
2,9,5,0,7,6,0,0,0,0,0,0,0,1084,0,No
0,0,0,0,1,3,0,0,0,0,0,0,0,1690,0,No
0,0,0,0,0,3,0,0,0,0,0,0,0,1290,0,No
0,0,0,0,0,1,0,0,0,0,0,0,0,559,0,No
0,0,0,0,0,3,0,0,0,0,0,0,0,1690,0,No
0,1,0,0,0,2,0,0,0,0,0,0,0,731,2,No
17,10,19,0,7,8,0,0,0,0,0,0,0,1689,3,No
0,1,0,0,0,5,0,0,0,0,0,0,0,1688,0,No
4,7,4,0,4,8,0,0,0,0,0,0,0,1638,1,No
13,15,37,0,9,8,0,0,0,0,0,0,0,1179,4,Yes
0,3,0,0,1,6,0,0,0,0,0,0,0,1179,0,No
23,20,49,0,5,8,0,0,0,0,0,0,0,1189,7,No
0,2,0,0,1,4,0,0,0,0,0,0,0,1359,0,No
7,17,14,0,1,3,0,0,0,0,0,0,0,479,5,No
5,8,8,0,0,2,0,0,0,0,0,0,0,223,0,No
3,3,3,0,0,4,0,0,0,0,0,0,0,1071,0,No
39,19,75,0,5,8,0,0,0,0,0,0,0,1071,3,No
12,17,73,0,5,7,0,0,0,0,0,0,0,1059,3,No
19,17,44,0,10,9,0,0,0,0,0,0,0,1690,6,No
5,6,7,0,1,2,0,0,0,0,0,0,0,129,4,No
5,9,18,0,9,8,0,0,0,0,0,0,0,1659,3,No
43,15,54,0,8,8,0,0,0,0,0,0,0,1690,17,No
13,12,37,0,1,6,0,0,0,0,0,0,0,1072,3,No
5,6,9,0,7,8,0,0,0,0,0,0,0,1638,1,No
4,5,6,0,0,4,0,0,0,0,0,0,0,822,1,No
1,3,1,0,0,5,0,0,0,0,0,0,0,1359,0,No
8,8,13,0,5,8,0,0,0,0,0,0,0,1690,5,No
2,2,3,0,0,7,0,0,0,0,0,0,0,1289,0,No
19,14,35,0,5,8,0,0,0,0,0,0,0,1683,2,No
11,12,55,0,4,9,0,0,0,0,0,0,0,1665,5,No
3,6,5,0,1,8,0,0,0,0,0,0,0,1359,2,No
20,16,59,0,1,8,0,0,0,0,0,0,0,1098,11,No
2,5,3,0,1,8,0,0,0,0,0,0,0,1289,0,No
11,14,19,0,6,8,0,0,0,0,0,0,0,1554,2,No
11,13,17,0,5,8,0,0,0,0,0,0,0,1690,1,No
10,10,12,0,4,8,0,0,0,0,0,0,0,1189,3,No
10,11,20,0,7,8,0,0,0,0,0,0,0,1638,2,No
3,4,4,0,0,5,0,0,0,0,0,0,0,822,1,No
2,5,4,0,0,6,0,0,0,0,0,0,0,1359,0,No
2,3,2,0,0,5,0,0,0,0,0,0,0,1359,0,No
7,9,10,0,6,8,0,0,0,0,0,0,0,1690,4,No
2,1,2,0,0,5,0,0,0,0,0,0,0,1359,0,No
4,6,12,0,1,8,0,0,0,0,0,0,0,1359,1,No
2,3,2,0,0,6,0,0,0,0,0,0,0,1690,0,No
2,4,3,0,2,2,0,0,0,0,0,0,0,433,2,No
12,12,61,0,2,4,0,0,0,0,0,0,0,770,1,No
17,8,23,0,7,8,0,0,0,0,0,0,0,1182,1,No
6,10,12,0,0,1,0,0,0,0,0,0,0,223,0,No
0,3,0,0,1,3,0,0,0,0,0,0,0,622,0,No
0,3,0,0,0,6,0,0,0,0,0,0,0,1084,0,No
10,6,10,0,0,1,0,0,0,0,0,0,0,479,0,No
4,8,5,0,3,3,0,0,0,0,0,0,0,688,1,No
6,8,17,0,0,2,0,0,0,0,0,0,0,476,1,No
10,27,65,0,4,7,0,0,0,0,0,0,0,1274,5,No
9,0,11,0,0,0,0,0,0,0,0,0,0,0,2,No
9,11,19,0,2,6,0,0,0,0,0,0,0,1357,1,No
8,4,19,0,2,3,0,0,0,0,0,0,0,450,2,No
1,0,1,0,0,1,0,0,0,0,0,0,0,479,0,No
2,0,2,0,0,4,0,0,0,0,0,0,0,1690,0,No
4,8,5,0,0,2,0,0,0,0,0,0,0,104,5,No
21,11,46,0,4,3,0,0,0,0,0,0,0,450,1,No
11,14,33,0,6,7,0,0,0,0,0,0,0,1274,0,No
3,1,7,0,1,2,0,0,0,0,0,0,0,268,0,No
11,10,23,0,3,8,0,0,0,0,0,0,0,1690,6,No
15,16,25,0,3,8,0,0,0,0,0,0,0,1240,5,No
14,16,31,0,2,7,0,0,0,0,0,0,0,1246,1,No
12,12,24,0,3,8,0,0,0,0,0,0,0,1690,6,No
9,10,21,0,0,2,0,0,0,0,0,0,0,223,6,No
4,8,17,0,6,7,0,0,0,0,0,0,0,1084,2,No
11,11,14,0,1,7,0,0,0,0,0,0,0,1084,2,No
19,20,94,0,10,9,0,0,0,0,0,0,0,1084,2,No
5,5,15,0,0,7,0,0,0,0,0,0,0,1198,1,No
6,13,18,0,2,8,0,0,0,0,0,0,0,1274,2,No
20,13,40,0,5,4,0,0,0,0,0,0,0,822,3,No
6,8,6,0,3,7,0,0,0,0,0,0,0,1175,4,No
7,3,7,0,1,4,0,0,0,0,0,0,0,770,1,No
11,11,15,0,5,5,0,0,0,0,0,0,0,770,1,No
6,7,11,0,0,7,0,0,0,0,0,0,0,1198,1,No
7,7,7,0,1,5,0,0,0,0,0,0,0,1175,4,No
9,15,10,0,3,7,0,0,0,0,0,0,0,1175,2,No
13,12,27,0,3,8,0,0,0,0,0,0,0,1690,6,No
13,0,13,0,0,0,0,0,0,0,0,0,0,0,0,No
22,1,68,0,1,3,0,0,0,0,0,0,0,770,3,No
3,6,4,0,0,1,0,0,0,0,0,0,0,129,1,No
3,5,4,0,2,5,0,0,0,0,0,0,0,822,0,No
10,1,14,0,2,2,0,0,0,0,0,0,0,450,0,No
8,16,17,0,1,7,0,0,0,0,0,0,0,1084,3,No
13,11,25,0,0,2,0,0,0,0,0,0,0,223,6,No
0,3,0,0,0,6,0,0,0,0,0,0,0,1084,0,No
1,7,2,0,2,7,0,0,0,0,0,0,0,1186,2,No
7,5,9,0,1,6,0,0,0,0,0,0,0,1690,1,No
16,20,34,0,8,5,0,0,0,0,0,0,0,770,2,No
12,14,34,0,2,6,0,0,0,0,0,0,0,1357,1,No
0,0,0,0,0,5,0,0,0,0,0,0,0,1290,1,No
2,2,5,0,0,1,0,0,0,0,0,0,0,213,0,No
1,1,2,0,0,1,0,0,0,0,0,0,0,213,0,No
2,0,7,0,0,1,0,0,0,0,0,0,0,433,2,No
2,1,2,0,1,1,0,0,0,0,0,0,0,433,0,No
1,1,5,0,0,1,0,0,0,0,0,0,0,433,0,No
7,4,7,0,3,6,0,0,0,0,0,0,0,1729,2,No
3,2,3,0,2,6,0,0,0,0,0,0,0,1189,0,No
2,2,2,0,1,5,0,0,0,0,0,0,0,1486,0,No
5,3,7,0,1,5,0,0,0,0,0,0,0,1729,0,No
7,7,14,0,1,6,0,0,0,0,0,0,0,1638,0,No
14,13,28,0,3,6,0,0,0,0,0,0,0,1665,1,No
2,0,2,0,0,4,0,0,0,0,0,0,0,1690,0,No
0,0,0,0,0,5,0,0,0,0,0,0,0,1690,1,No
8,7,11,0,1,6,0,0,0,0,0,0,0,1638,0,No
5,2,5,0,1,6,0,0,0,0,0,0,0,1179,0,No
7,4,14,0,4,7,0,0,0,0,0,0,0,1246,1,No
11,5,13,0,2,6,0,0,0,0,0,0,0,1071,0,No
8,11,12,0,0,6,0,0,0,0,0,0,0,1659,0,No
17,14,17,0,4,7,0,0,0,0,0,0,0,1659,0,No
21,12,41,0,2,8,0,0,0,0,0,0,0,1729,0,No
5,2,5,0,0,1,0,0,0,0,0,0,0,129,0,No
18,15,26,0,2,8,0,0,0,0,0,0,0,1554,0,No
18,17,19,0,3,8,0,0,0,0,0,0,0,1680,0,No
9,5,15,0,0,2,0,0,0,0,0,0,0,449,3,No
5,5,8,0,0,6,0,0,0,0,0,0,0,1486,1,No
4,0,4,0,0,1,0,0,0,0,0,0,0,1071,0,No
3,1,5,0,1,2,0,0,0,0,0,0,0,710,0,No
3,1,5,0,1,4,0,0,0,0,0,0,0,1409,0,No
2,0,2,0,1,4,0,0,0,0,0,0,0,1409,0,No
4,1,4,0,1,5,0,0,0,0,0,0,0,1179,1,No
3,2,6,0,0,2,0,0,0,0,0,0,0,688,0,No
1,2,10,0,1,4,0,0,0,0,0,0,0,1176,0,No
0,0,0,0,0,4,0,0,0,0,0,0,0,1690,0,No
0,1,0,0,0,4,0,0,0,0,0,0,0,1690,0,No
3,0,3,0,0,5,0,0,0,0,0,0,0,1179,0,No
1,0,2,0,1,4,0,0,0,0,0,0,0,1690,0,No
1,0,2,0,1,5,0,0,0,0,0,0,0,1179,0,No
1,1,2,0,0,4,0,0,0,0,0,0,0,1179,0,No
1,2,3,0,0,4,0,0,0,0,0,0,0,1179,0,No
1,0,1,0,0,4,0,0,0,0,0,0,0,1690,0,No
5,0,5,0,1,5,0,0,0,0,0,0,0,1729,3,No
32,3,82,0,2,5,0,0,0,0,0,0,0,1098,0,No
8,1,25,0,2,8,0,0,0,0,0,0,0,1638,0,No
2,1,2,0,0,3,0,0,0,0,0,0,0,1448,0,No
5,1,5,0,3,8,0,0,0,0,0,0,0,1638,1,No
3,1,3,0,1,5,0,0,0,0,0,0,0,1246,0,No
2,1,3,0,1,5,0,0,0,0,0,0,0,1638,0,No
5,1,8,0,3,8,0,0,0,0,0,0,0,1638,1,No
8,5,16,0,0,2,0,0,0,0,0,0,0,224,4,No
1,0,1,0,0,4,0,0,0,0,0,0,0,1690,0,No
6,1,30,6,2,7,3,3,0,0,1,3,4,1246,0,No
4,1,5,0,1,8,0,0,0,0,0,0,0,1246,3,No
9,1,26,0,2,9,0,0,0,0,0,0,0,1246,6,No
20,0,30,4,5,7,1,1,-2,0,1,3,4,1246,0,No
0,0,0,0,0,3,0,0,0,0,0,0,0,1690,0,No
5,1,9,0,0,1,0,0,0,0,0,0,0,248,0,No
9,1,14,0,1,6,0,0,0,0,0,0,0,1246,1,No
1,0,1,0,2,1,0,0,0,0,0,0,0,720,0,No
9,0,30,0,0,3,0,0,0,0,0,0,0,1059,1,No
8,1,47,4,2,2,2,2,0,0,1,1,1,429,2,No
1,0,1,0,0,5,0,0,0,0,0,0,0,1690,0,No
1,1,5,0,0,1,0,0,0,0,0,0,0,213,0,No
2,1,2,0,0,1,0,0,0,0,0,0,0,213,0,No
1,0,1,0,0,5,0,0,0,0,0,0,0,1690,0,No
16,1,20,0,0,3,0,0,0,0,0,0,0,773,4,No
1,0,1,0,0,5,0,0,0,0,0,0,0,1290,0,No
6,4,7,0,0,4,0,0,0,0,0,0,0,1175,0,No
1,1,1,0,0,4,0,0,0,0,0,0,0,1290,0,No
2,0,2,0,0,3,0,0,0,0,0,0,0,681,0,No
19,62,78,0,0,1,0,0,0,0,0,0,0,170,19,No
4,0,8,0,0,2,0,0,0,0,0,0,0,170,4,No
2,0,4,0,0,2,0,0,0,0,0,0,0,212,0,No
1,0,2,0,0,2,0,0,0,0,0,0,0,170,1,No
1,0,2,0,0,1,0,0,0,0,0,0,0,499,1,No
1,6,14,0,1,3,0,0,0,0,0,0,0,1051,2,No
4,1,4,38,0,5,19,19,0,0,1,6,8,1290,0,No
5,1,14,18,1,2,11,11,4,4,1,6,8,715,0,No
4,1,4,65,0,1,65,65,65,65,1,6,8,38,0,No
6,1,6,2,1,3,1,1,0,0,1,6,8,715,0,No
7,0,8,4,0,4,2,2,0,0,1,6,8,1729,0,No
15,45,151,4,9,9,2,2,0,0,1,6,8,1063,8,No
3,2,13,0,0,1,0,0,0,0,0,0,0,429,0,No
10,9,84,0,1,5,0,0,0,0,0,0,0,828,1,No
7,11,13,0,2,7,0,0,0,0,0,0,0,1605,3,No
2,9,23,0,3,5,0,0,0,0,0,0,0,1037,3,No
15,17,38,0,4,8,0,0,0,0,0,0,0,1282,5,No
1,5,10,0,1,5,0,0,0,0,0,0,0,1092,0,No
1,2,1,0,1,6,0,0,0,0,0,0,0,1345,0,No
2,1,2,0,1,5,0,0,0,0,0,0,0,1290,0,No
5,3,11,0,1,3,0,0,0,0,0,0,0,745,1,No
5,8,29,11,7,6,2,2,-7,0,1,1,2,1179,2,No
10,34,50,5,4,9,5,5,5,5,1,1,2,1179,5,No
7,0,19,0,0,1,0,0,0,0,0,0,0,476,2,No
1,2,2,0,0,2,0,0,0,0,0,0,0,553,0,No
11,3,16,0,0,6,0,0,0,0,0,0,0,1683,0,No
5,1,5,0,1,3,0,0,0,0,0,0,0,1729,0,Yes
2,0,2,0,0,3,0,0,0,0,0,0,0,1690,0,No
20,7,68,0,2,5,0,0,0,0,0,0,0,1718,0,No
19,0,37,0,1,4,0,0,0,0,0,0,0,1683,0,No
6,0,15,0,2,5,0,0,0,0,0,0,0,1729,1,No
5,1,5,0,2,6,0,0,0,0,0,0,0,1703,0,No
9,2,9,0,1,4,0,0,0,0,0,0,0,1686,1,No
8,0,13,0,0,5,0,0,0,0,0,0,0,1084,0,No
12,5,19,0,0,3,0,0,0,0,0,0,0,809,9,No
17,2,24,0,0,5,0,0,0,0,0,0,0,1674,0,No
27,6,34,0,2,5,0,0,0,0,0,0,0,1716,3,No
2,0,2,0,2,5,0,0,0,0,0,0,0,1716,0,No
6,0,8,0,0,1,0,0,0,0,0,0,0,224,0,No
16,3,16,0,0,7,0,0,0,0,0,0,0,1290,0,No
8,1,12,0,0,2,0,0,0,0,0,0,0,553,1,No
8,0,11,0,0,5,0,0,0,0,0,0,0,1364,0,No
8,2,8,0,1,5,0,0,0,0,0,0,0,1686,1,No
5,1,7,0,0,5,0,0,0,0,0,0,0,1683,0,No
25,4,33,0,0,5,0,0,0,0,0,0,0,1694,0,No
10,0,10,0,0,1,0,0,0,0,0,0,0,429,0,No
4,0,4,0,0,4,0,0,0,0,0,0,0,1718,0,No
41,7,47,0,0,6,0,0,0,0,0,0,0,1674,0,No
31,3,39,0,2,6,0,0,0,0,0,0,0,1186,0,No
16,1,17,0,0,5,0,0,0,0,0,0,0,1179,0,No
0,1,0,0,0,4,0,0,0,0,0,0,0,1683,0,No
6,4,6,0,2,5,0,0,0,0,0,0,0,1259,0,No
18,5,19,0,0,5,0,0,0,0,0,0,0,1567,0,No
0,1,0,0,0,5,0,0,0,0,0,0,0,1683,0,No
4,1,4,0,0,4,0,0,0,0,0,0,0,1690,0,No
13,2,27,0,0,4,0,0,0,0,0,0,0,1084,1,No
6,1,8,0,0,4,0,0,0,0,0,0,0,1084,0,No
5,2,7,0,0,4,0,0,0,0,0,0,0,1084,0,No
8,1,8,0,0,5,0,0,0,0,0,0,0,1290,0,No
3,0,3,0,0,4,0,0,0,0,0,0,0,1683,0,No
0,1,0,0,0,5,0,0,0,0,0,0,0,1683,0,No
6,4,8,0,1,7,0,0,0,0,0,0,0,1290,0,No
6,2,6,0,0,4,0,0,0,0,0,0,0,1718,0,No
5,0,10,0,0,4,0,0,0,0,0,0,0,1567,0,No
4,0,4,0,0,3,0,0,0,0,0,0,0,1567,0,No
10,4,14,0,0,5,0,0,0,0,0,0,0,1683,0,No
5,3,7,0,0,5,0,0,0,0,0,0,0,1525,0,No
3,2,4,0,0,5,0,0,0,0,0,0,0,1729,0,No
0,1,0,0,1,4,0,0,0,0,0,0,0,1683,0,No
14,4,18,0,0,1,0,0,0,0,0,0,0,219,0,No
11,4,16,0,0,5,0,0,0,0,0,0,0,1683,0,Yes
4,2,4,0,0,4,0,0,0,0,0,0,0,1683,0,No
5,3,7,0,0,5,0,0,0,0,0,0,0,1525,0,No
3,2,4,0,0,5,0,0,0,0,0,0,0,1729,0,No
5,3,7,0,0,5,0,0,0,0,0,0,0,1683,0,No
4,2,4,0,0,4,0,0,0,0,0,0,0,1683,0,No
0,1,0,0,0,4,0,0,0,0,0,0,0,1683,0,No
0,1,0,0,0,4,0,0,0,0,0,0,0,1683,0,No
5,3,7,0,1,7,0,0,0,0,0,0,0,1683,0,No
4,2,4,0,0,4,0,0,0,0,0,0,0,1683,0,No
0,1,0,0,0,4,0,0,0,0,0,0,0,1683,0,No
18,6,43,0,0,6,0,0,0,0,0,0,0,1653,0,No
0,0,0,0,0,3,0,0,0,0,0,0,0,1690,0,No
11,4,16,0,0,5,0,0,0,0,0,0,0,1683,0,Yes
4,1,4,0,0,5,0,0,0,0,0,0,0,1729,0,No
5,3,7,0,0,5,0,0,0,0,0,0,0,1525,0,No
3,2,4,0,0,5,0,0,0,0,0,0,0,1729,0,No
5,3,7,0,0,5,0,0,0,0,0,0,0,1683,0,No
4,1,4,0,0,5,0,0,0,0,0,0,0,1729,0,No
0,1,0,0,0,4,0,0,0,0,0,0,0,1683,0,No
8,3,19,0,0,2,0,0,0,0,0,0,0,809,1,No
3,2,5,0,0,5,0,0,0,0,0,0,0,1729,0,No
0,1,0,0,0,4,0,0,0,0,0,0,0,1683,0,No
5,3,7,0,0,6,0,0,0,0,0,0,0,1683,0,No
4,1,4,0,0,5,0,0,0,0,0,0,0,1729,0,No
0,1,0,0,0,4,0,0,0,0,0,0,0,1683,0,No
51,18,95,0,1,5,0,0,0,0,0,0,0,1683,0,No
57,12,96,0,5,10,0,0,0,0,0,0,0,1683,1,No
10,4,14,0,0,5,0,0,0,0,0,0,0,1683,0,Yes
5,3,7,0,0,5,0,0,0,0,0,0,0,1525,0,No
3,2,4,0,0,5,0,0,0,0,0,0,0,1729,0,No
4,3,5,0,0,5,0,0,0,0,0,0,0,1683,0,No
0,1,0,0,1,4,0,0,0,0,0,0,0,1683,0,No
10,3,23,0,0,2,0,0,0,0,0,0,0,809,1,No
3,2,5,0,0,5,0,0,0,0,0,0,0,1729,0,No
0,1,0,0,1,4,0,0,0,0,0,0,0,1683,0,No
4,3,5,0,0,6,0,0,0,0,0,0,0,1683,0,No
0,1,0,0,1,4,0,0,0,0,0,0,0,1683,0,No
3,1,3,0,0,4,0,0,0,0,0,0,0,1729,0,No
4,2,4,0,0,4,0,0,0,0,0,0,0,1729,0,No
5,2,5,0,0,4,0,0,0,0,0,0,0,1729,0,No
5,2,5,0,0,4,0,0,0,0,0,0,0,1729,0,No
4,2,4,0,0,4,0,0,0,0,0,0,0,1729,0,No
2,1,2,0,0,5,0,0,0,0,0,0,0,1690,0,No
4,1,4,0,0,3,0,0,0,0,0,0,0,1690,0,No
5,2,5,0,0,4,0,0,0,0,0,0,0,1729,0,No
5,4,5,0,0,4,0,0,0,0,0,0,0,1729,0,No
6,3,6,0,0,4,0,0,0,0,0,0,0,1729,0,No
5,3,5,0,0,4,0,0,0,0,0,0,0,1729,0,No
5,4,5,0,0,4,0,0,0,0,0,0,0,1729,0,No
0,0,0,0,0,5,0,0,0,0,0,0,0,1690,0,No
4,2,4,0,0,4,0,0,0,0,0,0,0,1290,0,No
9,6,9,0,1,5,0,0,0,0,0,0,0,1690,0,No
7,3,7,0,1,4,0,0,0,0,0,0,0,1729,0,No
7,3,7,0,0,4,0,0,0,0,0,0,0,1729,0,No
8,6,8,0,0,4,0,0,0,0,0,0,0,1729,0,No
22,9,22,0,1,6,0,0,0,0,0,0,0,1729,0,No
5,4,5,0,0,4,0,0,0,0,0,0,0,1729,0,No
4,2,4,0,0,4,0,0,0,0,0,0,0,1729,0,No
4,4,4,0,0,6,0,0,0,0,0,0,0,1729,0,No
5,4,5,0,1,6,0,0,0,0,0,0,0,1729,0,No
10,4,10,0,1,4,0,0,0,0,0,0,0,1729,0,No
8,3,8,0,0,4,0,0,0,0,0,0,0,1729,0,No
15,6,15,0,1,6,0,0,0,0,0,0,0,1729,0,No
5,2,5,0,0,4,0,0,0,0,0,0,0,1729,0,No
5,4,5,0,0,4,0,0,0,0,0,0,0,1729,0,No
2,1,6,0,2,8,0,0,0,0,0,0,0,1686,2,No
9,3,17,0,2,4,0,0,0,0,0,0,0,1729,2,No
9,10,54,0,1,9,0,0,0,0,0,0,0,1473,3,No
3,2,5,0,0,4,0,0,0,0,0,0,0,1718,0,No
4,3,6,0,0,1,0,0,0,0,0,0,0,476,0,No
5,2,7,0,0,4,0,0,0,0,0,0,0,1718,0,Yes
5,8,11,0,1,4,0,0,0,0,0,0,0,1718,0,No
4,6,9,0,0,5,0,0,0,0,0,0,0,1718,0,No
2,3,6,0,1,7,0,0,0,0,0,0,0,1686,2,No
5,2,7,0,0,4,0,0,0,0,0,0,0,1718,0,No
5,10,11,0,0,4,0,0,0,0,0,0,0,1718,0,No
6,5,9,0,0,4,0,0,0,0,0,0,0,1718,0,No
5,4,8,0,0,4,0,0,0,0,0,0,0,1092,0,No
5,5,7,0,0,5,0,0,0,0,0,0,0,1653,0,No
4,3,4,0,0,4,0,0,0,0,0,0,0,1186,0,No
1,0,6,0,2,6,0,0,0,0,0,0,0,1729,0,No
9,9,27,0,0,5,0,0,0,0,0,0,0,1259,0,No
7,4,10,0,2,4,0,0,0,0,0,0,0,1084,0,No
8,4,12,0,0,4,0,0,0,0,0,0,0,1084,0,No
9,19,33,0,0,7,0,0,0,0,0,0,0,1674,0,No
30,36,89,0,2,7,0,0,0,0,0,0,0,1718,0,No
5,12,13,0,0,4,0,0,0,0,0,0,0,1718,0,No
11,2,19,0,1,1,0,0,0,0,0,0,0,408,1,No
4,5,6,0,0,1,0,0,0,0,0,0,0,132,0,No
20,17,116,0,5,7,0,0,0,0,0,0,0,1729,10,No
11,8,22,0,2,5,0,0,0,0,0,0,0,1718,0,No
9,7,14,0,0,4,0,0,0,0,0,0,0,1718,0,No
18,18,25,0,2,9,0,0,0,0,0,0,0,1473,0,No
5,2,7,0,0,4,0,0,0,0,0,0,0,1718,0,No
5,10,11,0,0,4,0,0,0,0,0,0,0,1718,0,No
4,0,4,0,0,1,0,0,0,0,0,0,0,177,0,No
7,0,11,0,0,1,0,0,0,0,0,0,0,177,0,No
3,0,3,0,0,1,0,0,0,0,0,0,0,177,0,No
3,0,3,0,0,1,0,0,0,0,0,0,0,177,1,No
7,0,8,0,1,1,0,0,0,0,0,0,0,408,0,No
3,0,3,0,0,1,0,0,0,0,0,0,0,177,0,No
30,0,55,0,0,1,0,0,0,0,0,0,0,219,1,No
0,0,0,0,0,1,0,0,0,0,0,0,0,219,1,No
0,0,0,0,0,0,0,0,0,0,0,0,0,0,0,No
2,2,2,0,0,4,0,0,0,0,0,0,0,1700,0,No
1,2,2,0,0,5,0,0,0,0,0,0,0,1729,0,No
1,4,6,0,0,6,0,0,0,0,0,0,0,1729,0,No
1,3,2,0,1,5,0,0,0,0,0,0,0,1700,0,No
0,1,0,0,0,5,0,0,0,0,0,0,0,1729,0,No
0,0,0,0,0,3,0,0,0,0,0,0,0,1729,0,No
1,1,1,0,0,3,0,0,0,0,0,0,0,1700,0,No
0,0,0,0,0,4,0,0,0,0,0,0,0,1525,0,No
1,6,10,0,2,9,0,0,0,0,0,0,0,1284,1,No
2,1,2,0,3,4,0,0,0,0,0,0,0,1729,0,No
0,0,0,0,0,4,0,0,0,0,0,0,0,1525,0,No
1,2,7,0,2,5,0,0,0,0,0,0,0,1525,1,No
0,0,0,0,0,4,0,0,0,0,0,0,0,1525,0,No
1,4,11,0,2,5,0,0,0,0,0,0,0,1525,2,No
0,0,0,0,0,4,0,0,0,0,0,0,0,1525,0,No
1,4,5,0,2,3,0,0,0,0,0,0,0,826,1,No
1,1,2,0,0,4,0,0,0,0,0,0,0,1525,0,No
0,0,0,0,0,4,0,0,0,0,0,0,0,1525,0,No
3,5,20,0,2,7,0,0,0,0,0,0,0,1525,1,No
4,1,7,0,2,5,0,0,0,0,0,0,0,1525,0,No
0,0,0,0,0,4,0,0,0,0,0,0,0,1290,0,No
1,3,5,0,2,5,0,0,0,0,0,0,0,1186,0,No
0,0,0,0,0,4,0,0,0,0,0,0,0,1525,0,No
1,8,7,0,3,6,0,0,0,0,0,0,0,1259,3,No
0,0,0,0,0,4,0,0,0,0,0,0,0,1290,0,No
1,4,9,0,2,5,0,0,0,0,0,0,0,1525,1,No
0,0,0,0,0,4,0,0,0,0,0,0,0,1290,0,No
1,3,5,0,2,5,0,0,0,0,0,0,0,1290,1,No
0,0,0,0,0,4,0,0,0,0,0,0,0,1290,0,No
1,2,7,0,2,8,0,0,0,0,0,0,0,1290,1,No
0,0,0,0,0,4,0,0,0,0,0,0,0,1525,0,No
0,0,0,0,1,4,0,0,0,0,0,0,0,1525,0,No
2,15,18,0,1,1,0,0,0,0,0,0,0,496,0,No
1,3,8,0,2,5,0,0,0,0,0,0,0,1525,0,No
0,0,0,0,0,4,0,0,0,0,0,0,0,1525,0,No
1,2,3,0,2,3,0,0,0,0,0,0,0,826,0,No
0,0,0,0,0,5,0,0,0,0,0,0,0,1525,0,No
3,14,24,0,2,8,0,0,0,0,0,0,0,1196,0,Yes
1,3,24,0,2,7,0,0,0,0,0,0,0,1189,0,No
0,0,0,0,0,4,0,0,0,0,0,0,0,1690,0,No
12,3,61,0,0,8,0,0,0,0,0,0,0,1246,0,No
0,0,0,0,0,4,0,0,0,0,0,0,0,1690,0,No
0,0,0,0,0,5,0,0,0,0,0,0,0,1690,0,No
1,2,1,0,0,4,0,0,0,0,0,0,0,1259,1,No
1,8,18,0,0,5,0,0,0,0,0,0,0,1259,1,No
0,0,0,0,0,1,0,0,0,0,0,0,0,828,1,No
1,1,1,0,1,6,0,0,0,0,0,0,0,1189,0,No
18,4,18,0,0,4,0,0,0,0,0,0,0,742,0,No
4,3,4,0,0,4,0,0,0,0,0,0,0,773,0,No
2,2,2,0,0,6,0,0,0,0,0,0,0,1290,2,No
2,2,2,0,0,5,0,0,0,0,0,0,0,1690,0,No
17,1,44,0,1,5,0,0,0,0,0,0,0,1644,0,No
1,0,1,0,1,4,0,0,0,0,0,0,0,1729,0,No
3,3,3,0,0,4,0,0,0,0,0,0,0,1081,0,No
4,2,4,0,2,2,0,0,0,0,0,0,0,829,0,No
0,0,0,0,0,6,0,0,0,0,0,0,0,1690,0,No
11,25,66,0,4,6,0,0,0,0,0,0,0,829,8,No
12,0,22,0,0,2,0,0,0,0,0,0,0,736,2,No
23,12,102,0,0,8,0,0,0,0,0,0,0,1602,44,No
3,9,19,0,0,2,0,0,0,0,0,0,0,226,1,No
4,5,10,0,0,5,0,0,0,0,0,0,0,807,0,No
2,7,11,0,4,4,0,0,0,0,0,0,0,785,0,No
3,9,19,0,0,2,0,0,0,0,0,0,0,226,3,No
2,7,12,0,1,4,0,0,0,0,0,0,0,829,1,No
26,29,81,0,12,10,0,0,0,0,0,0,0,1667,1,No
0,0,0,0,0,3,0,0,0,0,0,0,0,1690,0,No
4,9,7,0,3,6,0,0,0,0,0,0,0,1282,1,No
1,0,1,0,1,3,0,0,0,0,0,0,0,1690,0,No
2,2,5,0,2,3,0,0,0,0,0,0,0,1290,2,No
3,1,12,0,0,4,0,0,0,0,0,0,0,1158,1,No
1,0,1,0,1,3,0,0,0,0,0,0,0,1690,0,No
0,0,0,0,0,3,0,0,0,0,0,0,0,1690,0,No
4,1,5,0,1,4,0,0,0,0,0,0,0,1290,0,No
0,0,0,0,0,4,0,0,0,0,0,0,0,1290,0,No
2,10,11,0,0,4,0,0,0,0,0,0,0,1084,1,No
0,0,0,0,0,3,0,0,0,0,0,0,0,1290,1,No
2,1,2,0,0,5,0,0,0,0,0,0,0,1084,0,No
0,1,0,0,0,4,0,0,0,0,0,0,0,1290,0,No
7,16,42,0,4,5,0,0,0,0,0,0,0,1290,4,No
2,2,11,0,1,3,0,0,0,0,0,0,0,1059,0,No
7,19,49,0,4,5,0,0,0,0,0,0,0,1290,5,No
10,0,10,0,0,1,0,0,0,0,0,0,0,455,0,No
1,0,4,0,0,0,0,0,0,0,0,0,0,0,0,No
2,1,4,0,1,5,0,0,0,0,0,0,0,1729,0,No
6,1,6,0,0,5,0,0,0,0,0,0,0,1729,0,No
7,4,7,0,0,7,0,0,0,0,0,0,0,1690,0,No
0,1,0,0,1,5,0,0,0,0,0,0,0,1690,1,No
8,14,15,0,3,8,0,0,0,0,0,0,0,1654,1,No
14,16,46,0,3,9,0,0,0,0,0,0,0,1669,5,No
1,3,5,0,2,2,0,0,0,0,0,0,0,450,4,No
3,4,4,0,0,4,0,0,0,0,0,0,0,1508,0,No
12,20,37,6,3,7,6,6,6,6,1,1,1,1451,4,No
6,5,18,0,2,8,0,0,0,0,0,0,0,1186,4,No
13,13,30,0,5,8,0,0,0,0,0,0,0,1246,1,No
13,17,46,0,3,9,0,0,0,0,0,0,0,1084,6,No
10,23,38,21,5,8,4,2,-13,0,5,11,17,1667,4,No
19,27,55,3,8,10,1,1,-1,0,1,6,7,1658,3,No
7,17,47,0,2,7,0,0,0,0,0,0,0,1686,1,No
7,7,22,0,1,1,0,0,0,0,0,0,0,132,5,No
16,27,62,0,6,8,0,0,0,0,0,0,0,1563,6,No
0,0,0,0,0,7,0,0,0,0,0,0,0,1729,0,No
1,0,1,0,0,4,0,0,0,0,0,0,0,1729,0,No
0,0,0,0,1,2,0,0,0,0,0,0,0,450,0,No
30,33,85,0,14,10,0,0,0,0,0,0,0,1696,1,No
7,11,10,6,0,2,2,2,-2,0,1,6,7,555,0,No
11,6,12,0,2,6,0,0,0,0,0,0,0,1179,0,No
18,63,213,27,8,8,26,25,25,25,4,6,11,1657,8,Yes
2,2,2,0,0,4,0,0,0,0,0,0,0,1690,0,No
3,11,5,0,0,4,0,0,0,0,0,0,0,1654,0,No
5,11,36,0,0,6,0,0,0,0,0,0,0,1669,0,No
2,2,2,0,0,5,0,0,0,0,0,0,0,1690,0,No
3,3,3,0,1,5,0,0,0,0,0,0,0,1186,0,No
4,18,38,0,3,5,0,0,0,0,0,0,0,1245,0,No
7,12,23,0,0,5,0,0,0,0,0,0,0,1084,1,No
13,24,57,0,4,6,0,0,0,0,0,0,0,1667,0,No
7,39,76,26,6,7,18,18,10,10,3,5,10,1679,5,Yes
12,14,20,0,3,5,0,0,0,0,0,0,0,1681,0,No
1,2,1,0,0,0,0,0,0,0,0,0,0,0,0,No
5,10,29,0,0,1,0,0,0,0,0,0,0,219,0,No
3,3,3,0,0,1,0,0,0,0,0,0,0,132,0,No
7,33,67,0,3,8,0,0,0,0,0,0,0,1567,1,No
7,0,9,0,0,4,0,0,0,0,0,0,0,1696,0,No
17,30,71,41,13,11,22,21,3,4,4,11,17,1679,4,Yes
10,11,46,0,3,6,0,0,0,0,0,0,0,741,1,No
5,0,5,0,0,4,0,0,0,0,0,0,0,1665,1,No
2,2,4,0,0,4,0,0,0,0,0,0,0,878,0,No
9,17,37,0,9,9,0,0,0,0,0,0,0,1505,5,No
1,8,10,0,2,4,0,0,0,0,0,0,0,1505,0,No
7,10,29,0,1,6,0,0,0,0,0,0,0,1729,1,No
1,1,4,0,0,1,0,0,0,0,0,0,0,423,0,No
8,7,8,0,1,4,0,0,0,0,0,0,0,741,0,No
13,10,15,0,1,5,0,0,0,0,0,0,0,740,0,No
2,4,2,0,0,5,0,0,0,0,0,0,0,1729,0,No
5,7,16,0,1,4,0,0,0,0,0,0,0,756,1,No
5,4,5,0,1,3,0,0,0,0,0,0,0,735,0,No
7,10,19,0,2,4,0,0,0,0,0,0,0,736,0,No
14,11,15,0,2,3,0,0,0,0,0,0,0,735,0,No
10,16,16,7,0,5,1,1,-5,0,2,6,7,740,1,No
18,14,32,0,5,4,0,0,0,0,0,0,0,734,0,No
5,6,5,0,0,4,0,0,0,0,0,0,0,737,0,No
6,4,6,0,1,3,0,0,0,0,0,0,0,735,0,No
16,19,21,0,2,5,0,0,0,0,0,0,0,730,0,No
7,7,10,0,1,4,0,0,0,0,0,0,0,735,0,No
18,17,32,0,5,6,0,0,0,0,0,0,0,731,0,No
6,4,6,0,1,7,0,0,0,0,0,0,0,1729,0,No
6,5,16,0,1,3,0,0,0,0,0,0,0,728,0,No
2,1,2,0,1,6,0,0,0,0,0,0,0,1690,2,No
11,1,11,0,0,2,0,0,0,0,0,0,0,387,3,No
11,2,11,0,0,8,0,0,0,0,0,0,0,1165,3,No
9,2,9,0,0,2,0,0,0,0,0,0,0,387,12,No
9,3,9,0,0,7,0,0,0,0,0,0,0,1165,9,No
1,1,1,0,1,6,0,0,0,0,0,0,0,1690,0,No
10,3,10,0,0,2,0,0,0,0,0,0,0,217,0,No
15,3,20,0,0,6,0,0,0,0,0,0,0,1182,0,No
7,26,52,0,1,3,0,0,0,0,0,0,0,217,4,Yes
15,23,63,0,1,2,0,0,0,0,0,0,0,217,12,No
19,16,90,0,1,3,0,0,0,0,0,0,0,217,22,No
6,16,49,0,3,6,0,0,0,0,0,0,0,828,1,No
2,12,2,0,0,2,0,0,0,0,0,0,0,387,0,No
5,13,18,0,0,3,0,0,0,0,0,0,0,232,1,No
7,28,29,0,3,5,0,0,0,0,0,0,0,766,0,No
4,10,14,0,0,3,0,0,0,0,0,0,0,232,2,No
3,17,16,0,1,3,0,0,0,0,0,0,0,387,4,No
10,10,15,0,1,2,0,0,0,0,0,0,0,217,0,No
10,14,18,0,0,1,0,0,0,0,0,0,0,217,2,Yes
3,18,31,0,3,7,0,0,0,0,0,0,0,828,1,No
10,10,15,0,0,1,0,0,0,0,0,0,0,217,0,No
9,12,22,0,0,2,0,0,0,0,0,0,0,217,2,Yes
3,0,3,0,0,3,0,0,0,0,0,0,0,1729,0,No
37,63,193,0,5,6,0,0,0,0,0,0,0,1657,8,No
1,0,16,0,0,1,0,0,0,0,0,0,0,211,0,No
1,0,10,0,0,1,0,0,0,0,0,0,0,211,1,No
12,1,47,0,0,8,0,0,0,0,0,0,0,1224,7,No
5,4,60,9,4,8,8,8,7,7,1,2,2,1113,5,Yes
3,0,38,0,0,1,0,0,0,0,0,0,0,666,9,No
13,1,16,0,2,1,0,0,0,0,0,0,0,700,0,No
7,4,22,0,1,4,0,0,0,0,0,0,0,878,3,No
8,2,19,0,0,5,0,0,0,0,0,0,0,1428,1,No
1,0,2,0,0,4,0,0,0,0,0,0,0,1729,0,No
1,0,9,0,0,2,0,0,0,0,0,0,0,211,3,No
2,0,6,0,0,2,0,0,0,0,0,0,0,211,3,No
0,0,0,0,0,5,0,0,0,0,0,0,0,1690,0,No
10,35,133,7,9,7,4,4,1,1,1,6,8,1064,16,No
2,0,4,0,1,2,0,0,0,0,0,0,0,211,0,No
8,0,10,0,0,1,0,0,0,0,0,0,0,178,0,No
4,0,4,0,0,6,0,0,0,0,0,0,0,1690,1,No
4,0,6,0,0,1,0,0,0,0,0,0,0,178,2,No
1,0,9,0,1,2,0,0,0,0,0,0,0,211,0,No
1,1,7,0,1,1,0,0,0,0,0,0,0,92,0,No
9,13,33,0,0,5,0,0,0,0,0,0,0,1290,2,No
1,0,5,0,1,1,0,0,0,0,0,0,0,673,0,No
9,0,10,49,0,2,35,18,21,17,2,2,2,178,0,No
2,0,4,0,0,4,0,0,0,0,0,0,0,1729,0,No
2,0,2,0,0,5,0,0,0,0,0,0,0,1690,0,No
9,7,44,4,4,5,2,2,0,0,1,2,2,1387,10,No
14,0,18,0,1,5,0,0,0,0,0,0,0,1113,0,No
2,0,6,0,0,4,0,0,0,0,0,0,0,1113,1,No
3,2,4,0,1,5,0,0,0,0,0,0,0,1345,3,No
9,3,9,6,2,5,2,2,-2,0,1,6,7,807,0,No
0,0,0,0,1,6,0,0,0,0,0,0,0,1690,0,No
0,1,0,0,1,5,0,0,0,0,0,0,0,1290,0,No
3,0,3,0,1,6,0,0,0,0,0,0,0,1690,0,No
9,1,9,0,1,4,0,0,0,0,0,0,0,1179,0,Yes
1,7,3,0,2,4,0,0,0,0,0,0,0,745,1,No
0,0,0,0,0,3,0,0,0,0,0,0,0,1690,0,No
5,9,5,0,0,4,0,0,0,0,0,0,0,807,0,No
12,11,12,4,1,4,2,2,0,0,1,6,7,807,0,No
4,7,4,0,0,3,0,0,0,0,0,0,0,807,0,No
19,9,19,0,1,9,0,0,0,0,0,0,0,1197,0,No
18,13,25,4,6,8,2,2,0,0,1,6,7,1214,0,No
12,7,12,0,1,8,0,0,0,0,0,0,0,1214,1,No
3,1,8,0,0,1,0,0,0,0,0,0,0,441,3,No
37,21,113,71,7,8,51,33,31,30,2,7,8,1203,11,No
3,2,6,0,1,7,0,0,0,0,0,0,0,1203,3,No
1,1,1,0,0,3,0,0,0,0,0,0,0,1290,0,No
14,3,16,0,0,5,0,0,0,0,0,0,0,1191,2,No
17,2,26,0,0,5,0,0,0,0,0,0,0,1191,1,No
1,0,1,0,0,3,0,0,0,0,0,0,0,1290,0,No
4,0,4,0,0,3,0,0,0,0,0,0,0,1290,0,No
21,4,24,0,0,5,0,0,0,0,0,0,0,1191,2,No
22,7,38,0,1,5,0,0,0,0,0,0,0,1191,1,No
2,0,2,0,1,5,0,0,0,0,0,0,0,1729,1,No
1,1,1,0,1,4,0,0,0,0,0,0,0,1290,0,No
1,4,2,0,0,6,0,0,0,0,0,0,0,1203,1,No
1,2,2,0,1,4,0,0,0,0,0,0,0,1203,0,No
1,3,1,0,0,3,0,0,0,0,0,0,0,1203,0,No
1,5,2,0,0,5,0,0,0,0,0,0,0,1203,0,No
1,3,2,0,0,3,0,0,0,0,0,0,0,1203,0,No
1,0,1,0,0,3,0,0,0,0,0,0,0,1290,1,No
1,0,1,0,0,3,0,0,0,0,0,0,0,1290,1,No
1,5,3,0,0,5,0,0,0,0,0,0,0,1203,0,No
0,0,0,0,1,5,0,0,0,0,0,0,0,1690,1,No
3,0,3,0,1,1,0,0,0,0,0,0,0,212,0,No
4,1,7,0,1,1,0,0,0,0,0,0,0,212,3,No
3,3,3,0,1,1,0,0,0,0,0,0,0,212,3,No
6,0,6,0,0,1,0,0,0,0,0,0,0,212,6,No
2,0,2,0,0,1,0,0,0,0,0,0,0,212,3,No
2,0,5,0,0,1,0,0,0,0,0,0,0,212,1,No
2,0,5,0,0,1,0,0,0,0,0,0,0,212,1,No
2,0,2,0,0,1,0,0,0,0,0,0,0,212,1,No
1,0,1,0,0,1,0,0,0,0,0,0,0,212,1,No
0,0,0,0,0,1,0,0,0,0,0,0,0,212,1,No
0,0,0,0,0,1,0,0,0,0,0,0,0,121,1,No
0,0,0,0,0,1,0,0,0,0,0,0,0,121,1,No
0,0,0,0,0,1,0,0,0,0,0,0,0,212,1,No
0,0,0,0,0,2,0,0,0,0,0,0,0,121,1,No
0,0,0,0,0,1,0,0,0,0,0,0,0,212,1,No
0,0,0,0,0,2,0,0,0,0,0,0,0,212,1,No
1,6,12,0,1,3,0,0,0,0,0,0,0,212,5,No
1,11,23,0,1,2,0,0,0,0,0,0,0,212,32,No
2,5,7,0,0,1,0,0,0,0,0,0,0,212,8,No
3,1,15,0,0,2,0,0,0,0,0,0,0,211,8,No
7,0,16,0,0,2,0,0,0,0,0,0,0,212,4,No
7,0,16,0,0,1,0,0,0,0,0,0,0,212,11,No
6,0,7,0,0,1,0,0,0,0,0,0,0,174,1,No
2,2,4,0,0,1,0,0,0,0,0,0,0,212,3,No
9,0,29,0,0,3,0,0,0,0,0,0,0,181,2,No
1,0,2,0,0,1,0,0,0,0,0,0,0,212,1,No
1,0,2,0,0,1,0,0,0,0,0,0,0,212,0,No
4,0,13,0,0,1,0,0,0,0,0,0,0,212,1,No
4,2,23,0,0,1,0,0,0,0,0,0,0,212,1,No
5,2,15,0,0,2,0,0,0,0,0,0,0,212,2,No
2,0,6,0,0,3,0,0,0,0,0,0,0,1193,2,No
6,0,19,0,1,3,0,0,0,0,0,0,0,1193,1,No
3,0,9,0,1,2,0,0,0,0,0,0,0,722,5,No
2,0,9,0,1,3,0,0,0,0,0,0,0,1193,2,No
5,0,17,0,0,3,0,0,0,0,0,0,0,1193,1,No
1,0,10,0,0,1,0,0,0,0,0,0,0,832,5,No
4,0,5,0,0,2,0,0,0,0,0,0,0,785,1,No
18,9,20,6,2,1,4,4,2,2,1,3,4,546,0,No
21,3,29,2,1,1,1,1,0,0,1,3,4,546,1,No
3,4,17,0,1,3,0,0,0,0,0,0,0,786,4,Yes
2,0,4,4,1,1,2,2,0,0,1,3,4,605,0,No
3,4,3,0,0,4,0,0,0,0,0,0,0,1778,0,No
7,1,14,0,0,1,0,0,0,0,0,0,0,226,0,No
11,1,13,0,0,1,0,0,0,0,0,0,0,293,0,No
0,0,0,0,0,6,0,0,0,0,0,0,0,1339,1,No
0,0,0,0,0,5,0,0,0,0,0,0,0,1339,0,No
0,1,0,0,0,4,0,0,0,0,0,0,0,1339,0,No
0,0,0,0,0,4,0,0,0,0,0,0,0,1339,0,No
9,1,14,0,0,5,0,0,0,0,0,0,0,1694,0,No
3,0,5,0,0,5,0,0,0,0,0,0,0,1778,0,No
5,1,6,0,0,4,0,0,0,0,0,0,0,1694,0,No
3,0,4,0,0,5,0,0,0,0,0,0,0,1778,0,No
2,1,2,0,1,4,0,0,0,0,0,0,0,1778,0,No
5,2,5,0,0,2,0,0,0,0,0,0,0,445,0,No
46,0,65,0,1,4,0,0,0,0,0,0,0,1714,0,No
9,1,9,0,0,2,0,0,0,0,0,0,0,806,0,No
13,0,20,0,0,5,0,0,0,0,0,0,0,1694,0,No
0,1,0,0,0,0,0,0,0,0,0,0,0,0,0,No
0,0,0,0,0,0,0,0,0,0,0,0,0,0,0,No
2,1,2,0,0,5,0,0,0,0,0,0,0,1339,0,No
1,0,1,0,0,4,0,0,0,0,0,0,0,1133,0,No
6,2,6,0,0,5,0,0,0,0,0,0,0,1133,0,No
11,1,13,0,0,3,0,0,0,0,0,0,0,1108,0,No
6,2,6,0,0,5,0,0,0,0,0,0,0,1133,0,No
0,1,0,0,0,0,0,0,0,0,0,0,0,0,0,No
3,1,3,0,0,0,0,0,0,0,0,0,0,0,0,No
9,1,14,0,0,1,0,0,0,0,0,0,0,445,1,No
5,2,5,0,0,1,0,0,0,0,0,0,0,454,0,No
11,1,11,0,0,0,0,0,0,0,0,0,0,0,0,No
0,1,0,0,0,1,0,0,0,0,0,0,0,440,0,No
3,0,4,0,2,1,0,0,0,0,0,0,0,458,1,No
7,0,7,0,0,1,0,0,0,0,0,0,0,458,0,No
2,0,2,0,0,3,0,0,0,0,0,0,0,1739,0,No
2,4,7,0,0,1,0,0,0,0,0,0,0,273,1,No
2,0,4,0,0,0,0,0,0,0,0,0,0,0,0,No
11,0,11,0,1,2,0,0,0,0,0,0,0,458,0,No
4,0,4,0,1,2,0,0,0,0,0,0,0,458,1,No
9,0,9,0,1,2,0,0,0,0,0,0,0,458,0,No
2,0,2,0,1,2,0,0,0,0,0,0,0,458,0,No
7,4,7,0,1,3,0,0,0,0,0,0,0,805,0,No
13,7,13,0,1,3,0,0,0,0,0,0,0,805,0,No
2,1,2,0,0,4,0,0,0,0,0,0,0,1778,0,No
0,0,0,0,1,1,0,0,0,0,0,0,0,457,16,No
5,3,5,0,1,3,0,0,0,0,0,0,0,805,1,No
5,1,5,0,0,4,0,0,0,0,0,0,0,800,0,No
7,3,7,0,3,3,0,0,0,0,0,0,0,801,0,No
13,5,13,0,2,3,0,0,0,0,0,0,0,804,0,No
10,8,10,0,0,3,0,0,0,0,0,0,0,804,0,No
18,8,18,0,3,4,0,0,0,0,0,0,0,806,0,No
5,3,5,0,0,3,0,0,0,0,0,0,0,800,0,No
6,1,6,0,0,4,0,0,0,0,0,0,0,800,0,No
16,11,16,0,3,4,0,0,0,0,0,0,0,801,0,No
7,2,7,0,1,7,0,0,0,0,0,0,0,1778,0,No
18,10,18,0,3,6,0,0,0,0,0,0,0,806,0,No
6,2,6,0,1,6,0,0,0,0,0,0,0,1778,1,No
4,2,4,0,1,4,0,0,0,0,0,0,0,805,0,No
6,0,8,0,0,7,0,0,0,0,0,0,0,1745,0,No
10,1,14,0,0,4,0,0,0,0,0,0,0,1616,0,No
8,2,8,0,0,4,0,0,0,0,0,0,0,1778,0,No
2,1,2,0,0,4,0,0,0,0,0,0,0,1778,0,No
3,0,7,0,0,5,0,0,0,0,0,0,0,1778,0,No
15,2,15,0,0,5,0,0,0,0,0,0,0,1339,0,No
9,1,11,0,0,2,0,0,0,0,0,0,0,602,0,No
9,1,13,0,0,6,0,0,0,0,0,0,0,1616,0,No
3,2,3,0,0,4,0,0,0,0,0,0,0,1778,0,No
5,1,5,0,0,5,0,0,0,0,0,0,0,1778,0,No
0,0,0,0,0,1,0,0,0,0,0,0,0,440,0,No
11,2,11,0,0,4,0,0,0,0,0,0,0,1716,0,No
3,1,3,0,0,4,0,0,0,0,0,0,0,1778,2,No
19,3,21,0,0,7,0,0,0,0,0,0,0,1718,0,No
2,0,3,0,1,6,0,0,0,0,0,0,0,1154,0,No
10,1,10,0,0,1,0,0,0,0,0,0,0,478,0,No
2,0,2,0,0,4,0,0,0,0,0,0,0,1735,0,No
7,2,8,0,2,2,0,0,0,0,0,0,0,499,0,No
4,2,4,0,0,4,0,0,0,0,0,0,0,1778,0,No
16,3,16,0,0,6,0,0,0,0,0,0,0,1723,0,No
10,2,23,0,2,5,0,0,0,0,0,0,0,858,1,No
4,0,4,0,0,5,0,0,0,0,0,0,0,1778,0,No
26,3,26,0,0,7,0,0,0,0,0,0,0,1235,0,No
13,1,13,0,0,6,0,0,0,0,0,0,0,1228,0,No
2,2,2,0,0,4,0,0,0,0,0,0,0,1778,0,No
10,3,10,0,0,1,0,0,0,0,0,0,0,301,1,No
18,3,18,0,0,4,0,0,0,0,0,0,0,1616,0,No
4,0,4,0,0,2,0,0,0,0,0,0,0,440,0,No
2,0,2,0,0,4,0,0,0,0,0,0,0,1339,0,No
18,2,26,0,0,5,0,0,0,0,0,0,0,1133,0,No
40,3,40,0,1,5,0,0,0,0,0,0,0,1714,0,No
35,0,39,0,1,5,0,0,0,0,0,0,0,1707,0,No
12,0,16,0,0,5,0,0,0,0,0,0,0,1778,0,No
24,2,25,0,0,6,0,0,0,0,0,0,0,1778,0,No
4,1,4,0,0,4,0,0,0,0,0,0,0,1778,0,No
2,2,2,0,0,4,0,0,0,0,0,0,0,1778,0,No
6,0,6,0,0,5,0,0,0,0,0,0,0,1339,0,No
2,0,2,0,0,4,0,0,0,0,0,0,0,1616,0,No
24,0,30,0,0,6,0,0,0,0,0,0,0,1745,1,No
2,0,2,0,0,5,0,0,0,0,0,0,0,1778,0,No
17,2,17,0,0,4,0,0,0,0,0,0,0,1241,0,No
20,2,27,0,0,6,0,0,0,0,0,0,0,1241,3,No
0,1,0,0,0,0,0,0,0,0,0,0,0,0,0,No
0,1,0,0,0,4,0,0,0,0,0,0,0,1739,1,No
18,1,22,0,0,5,0,0,0,0,0,0,0,1739,0,No
0,0,0,0,0,5,0,0,0,0,0,0,0,1739,0,No
2,0,4,0,0,4,0,0,0,0,0,0,0,1778,3,No
1,0,1,0,2,5,0,0,0,0,0,0,0,1778,1,No
7,4,10,0,2,3,0,0,0,0,0,0,0,1092,0,No
2,0,2,0,0,6,0,0,0,0,0,0,0,1739,0,No
4,0,7,0,1,2,0,0,0,0,0,0,0,507,1,No
1,0,1,0,0,6,0,0,0,0,0,0,0,1739,1,No
16,1,18,0,0,5,0,0,0,0,0,0,0,1778,1,No
6,1,6,0,1,5,0,0,0,0,0,0,0,1778,1,No
1,0,1,0,0,4,0,0,0,0,0,0,0,1739,0,No
0,0,0,0,0,5,0,0,0,0,0,0,0,1739,0,No
2,0,2,0,2,3,0,0,0,0,0,0,0,1065,0,No
5,0,18,0,2,7,0,0,0,0,0,0,0,1739,9,No
2,0,2,0,0,4,0,0,0,0,0,0,0,1739,0,No
1,0,1,0,0,5,0,0,0,0,0,0,0,1739,0,No
0,0,0,0,1,3,0,0,0,0,0,0,0,759,0,No
1,0,1,7,0,5,6,6,5,5,2,4,7,1739,1,No
46,1,50,0,0,7,0,0,0,0,0,0,0,1308,0,No
2,0,2,0,0,6,0,0,0,0,0,0,0,1739,1,No
2,0,5,0,0,5,0,0,0,0,0,0,0,1339,1,No
0,0,0,0,0,4,0,0,0,0,0,0,0,1739,0,No
2,0,3,0,0,5,0,0,0,0,0,0,0,1739,1,No
0,0,0,0,0,5,0,0,0,0,0,0,0,1339,0,No
0,0,0,0,0,4,0,0,0,0,0,0,0,1739,0,No
1,0,1,0,0,5,0,0,0,0,0,0,0,1739,1,No
0,0,0,0,0,5,0,0,0,0,0,0,0,1739,0,No
0,0,0,0,0,5,0,0,0,0,0,0,0,1739,0,No
0,0,0,0,1,6,0,0,0,0,0,0,0,1739,0,No
2,4,5,0,1,4,0,0,0,0,0,0,0,1339,3,No
1,0,2,0,0,5,0,0,0,0,0,0,0,1739,0,No
8,2,9,0,0,8,0,0,0,0,0,0,0,1739,0,No
2,0,5,0,0,6,0,0,0,0,0,0,0,1339,2,No
0,0,0,0,0,4,0,0,0,0,0,0,0,1739,0,No
1,0,1,7,0,5,6,6,5,5,2,4,7,1739,1,No
0,0,0,0,0,4,0,0,0,0,0,0,0,1339,0,No
2,0,2,0,0,0,0,0,0,0,0,0,0,0,0,No
0,1,0,0,0,4,0,0,0,0,0,0,0,1739,0,No
10,13,70,0,1,7,0,0,0,0,0,0,0,1221,0,No
4,0,23,0,0,1,0,0,0,0,0,0,0,601,4,No
5,4,10,0,2,4,0,0,0,0,0,0,0,790,1,No
2,4,19,0,2,2,0,0,0,0,0,0,0,499,2,No
3,1,4,0,0,1,0,0,0,0,0,0,0,440,1,No
0,0,0,0,0,1,0,0,0,0,0,0,0,440,0,No
0,0,0,0,0,1,0,0,0,0,0,0,0,440,0,No
0,0,0,0,0,1,0,0,0,0,0,0,0,440,0,No
0,0,0,0,0,1,0,0,0,0,0,0,0,440,0,No
0,0,0,0,0,1,0,0,0,0,0,0,0,440,0,No
0,0,0,0,0,2,0,0,0,0,0,0,0,440,0,No
0,0,0,0,0,1,0,0,0,0,0,0,0,440,0,No
0,0,0,0,0,1,0,0,0,0,0,0,0,440,0,No
0,0,0,0,1,6,0,0,0,0,0,0,0,1739,0,No
0,0,0,0,0,1,0,0,0,0,0,0,0,440,0,No
0,0,0,0,0,1,0,0,0,0,0,0,0,440,0,No
0,1,0,0,0,1,0,0,0,0,0,0,0,440,0,No
14,20,29,0,2,6,0,0,0,0,0,0,0,1739,0,No
1,2,8,0,1,3,0,0,0,0,0,0,0,1602,1,No
22,3,28,0,3,8,0,0,0,0,0,0,0,1739,0,No
1,0,1,0,0,1,0,0,0,0,0,0,0,528,0,No
5,1,14,0,0,2,0,0,0,0,0,0,0,146,0,No
4,2,10,0,2,7,0,0,0,0,0,0,0,1231,2,No
3,0,3,0,0,2,0,0,0,0,0,0,0,940,0,No
0,0,0,0,0,3,0,0,0,0,0,0,0,671,0,No
0,0,0,0,0,2,0,0,0,0,0,0,0,671,0,No
0,0,0,0,0,4,0,0,0,0,0,0,0,1739,0,No
3,1,4,0,0,5,0,0,0,0,0,0,0,1339,2,No
6,0,9,0,0,4,0,0,0,0,0,0,0,1120,0,No
3,0,3,0,0,2,0,0,0,0,0,0,0,777,1,No
2,0,2,0,0,5,0,0,0,0,0,0,0,1339,0,No
0,0,0,0,0,3,0,0,0,0,0,0,0,1739,0,No
10,0,20,0,3,6,0,0,0,0,0,0,0,1493,2,No
7,2,12,0,0,4,0,0,0,0,0,0,0,1498,1,No
1,1,4,0,0,3,0,0,0,0,0,0,0,1778,1,No
1,6,3,0,1,4,0,0,0,0,0,0,0,1408,0,No
2,0,3,0,0,3,0,0,0,0,0,0,0,1778,0,No
7,0,12,0,0,5,0,0,0,0,0,0,0,1338,1,No
2,3,12,0,2,6,0,0,0,0,0,0,0,1456,2,No
2,0,7,0,1,5,0,0,0,0,0,0,0,1458,0,No
3,0,16,0,0,6,0,0,0,0,0,0,0,1567,0,No
5,1,5,0,0,1,0,0,0,0,0,0,0,505,0,No
3,2,3,0,0,4,0,0,0,0,0,0,0,1778,0,No
2,0,2,0,0,5,0,0,0,0,0,0,0,1739,1,No
12,3,12,0,0,4,0,0,0,0,0,0,0,1778,0,No
14,10,52,0,0,5,0,0,0,0,0,0,0,1121,3,No
2,0,6,0,0,1,0,0,0,0,0,0,0,262,0,No
3,3,6,0,0,1,0,0,0,0,0,0,0,262,2,No
1,0,1,0,1,7,0,0,0,0,0,0,0,1778,0,No
8,3,28,0,0,4,0,0,0,0,0,0,0,1120,1,No
2,0,4,0,0,1,0,0,0,0,0,0,0,777,0,No
2,8,15,0,1,1,0,0,0,0,0,0,0,139,0,No
4,13,4,0,2,6,0,0,0,0,0,0,0,1739,0,No
4,6,6,0,1,7,0,0,0,0,0,0,0,1338,1,No
2,2,2,0,0,5,0,0,0,0,0,0,0,1408,0,No
0,0,0,0,0,2,0,0,0,0,0,0,0,528,0,No
8,8,9,0,1,8,0,0,0,0,0,0,0,1338,0,No
0,0,0,0,0,4,0,0,0,0,0,0,0,1739,0,No
10,12,29,0,5,6,0,0,0,0,0,0,0,1238,2,No
0,1,0,0,1,5,0,0,0,0,0,0,0,1739,0,No
6,2,10,0,2,8,0,0,0,0,0,0,0,1739,2,No
0,0,0,0,1,5,0,0,0,0,0,0,0,1739,0,No
6,7,7,0,4,3,0,0,0,0,0,0,0,737,1,No
4,2,4,0,0,3,0,0,0,0,0,0,0,737,0,No
3,5,8,0,3,8,0,0,0,0,0,0,0,1408,1,No
38,22,58,0,7,8,0,0,0,0,0,0,0,1739,15,No
4,5,5,0,0,2,0,0,0,0,0,0,0,178,2,No
3,5,13,0,0,2,0,0,0,0,0,0,0,743,0,No
13,13,38,0,10,8,0,0,0,0,0,0,0,1714,5,No
4,6,12,0,3,7,0,0,0,0,0,0,0,1714,1,No
11,4,12,0,3,7,0,0,0,0,0,0,0,1687,1,No
2,9,5,0,7,6,0,0,0,0,0,0,0,1133,0,No
0,0,0,0,1,3,0,0,0,0,0,0,0,1739,0,No
0,0,0,0,0,3,0,0,0,0,0,0,0,1339,0,No
0,0,0,0,0,1,0,0,0,0,0,0,0,608,0,No
0,0,0,0,0,3,0,0,0,0,0,0,0,1739,0,No
0,1,0,0,0,2,0,0,0,0,0,0,0,780,2,No
17,10,19,0,7,8,0,0,0,0,0,0,0,1738,3,No
0,1,0,0,0,5,0,0,0,0,0,0,0,1737,0,No
4,7,4,0,4,8,0,0,0,0,0,0,0,1687,1,No
13,15,37,4,10,8,2,2,0,0,1,1,1,1228,4,No
0,3,0,0,1,6,0,0,0,0,0,0,0,1228,0,No
23,20,49,0,5,8,0,0,0,0,0,0,0,1238,7,No
0,2,0,0,1,4,0,0,0,0,0,0,0,1408,0,No
7,17,14,0,1,3,0,0,0,0,0,0,0,528,5,No
5,8,8,0,0,2,0,0,0,0,0,0,0,272,0,No
3,3,3,0,0,4,0,0,0,0,0,0,0,1120,0,No
39,19,75,0,5,8,0,0,0,0,0,0,0,1120,3,No
12,17,73,0,5,7,0,0,0,0,0,0,0,1108,3,No
19,17,44,0,10,9,0,0,0,0,0,0,0,1739,6,No
5,6,7,0,1,2,0,0,0,0,0,0,0,178,4,No
5,9,18,0,9,8,0,0,0,0,0,0,0,1708,3,No
43,15,54,0,8,8,0,0,0,0,0,0,0,1739,17,No
13,12,37,0,1,6,0,0,0,0,0,0,0,1121,3,No
5,6,9,0,7,8,0,0,0,0,0,0,0,1687,1,No
4,5,6,0,0,4,0,0,0,0,0,0,0,871,1,No
1,3,1,0,0,5,0,0,0,0,0,0,0,1408,0,No
8,8,13,0,5,8,0,0,0,0,0,0,0,1739,5,No
2,2,3,0,0,7,0,0,0,0,0,0,0,1338,0,No
19,14,35,0,5,8,0,0,0,0,0,0,0,1732,2,No
11,12,55,0,4,9,0,0,0,0,0,0,0,1714,5,No
3,6,5,0,1,8,0,0,0,0,0,0,0,1408,2,No
20,16,59,0,1,8,0,0,0,0,0,0,0,1147,11,No
2,5,3,0,1,8,0,0,0,0,0,0,0,1338,0,No
11,14,19,0,6,8,0,0,0,0,0,0,0,1603,2,No
11,13,17,0,5,8,0,0,0,0,0,0,0,1739,1,No
10,10,12,0,4,8,0,0,0,0,0,0,0,1238,3,No
10,11,20,0,7,8,0,0,0,0,0,0,0,1687,2,No
3,4,4,0,0,5,0,0,0,0,0,0,0,871,1,No
2,5,4,0,0,6,0,0,0,0,0,0,0,1408,0,No
2,3,2,0,0,5,0,0,0,0,0,0,0,1408,0,No
7,9,10,0,6,8,0,0,0,0,0,0,0,1739,4,No
2,1,2,0,0,5,0,0,0,0,0,0,0,1408,0,No
4,6,12,0,1,8,0,0,0,0,0,0,0,1408,1,No
2,3,2,0,0,6,0,0,0,0,0,0,0,1739,0,No
2,4,3,0,2,2,0,0,0,0,0,0,0,482,2,No
12,12,61,0,2,4,0,0,0,0,0,0,0,819,1,No
17,8,23,0,7,8,0,0,0,0,0,0,0,1231,1,No
6,10,12,0,0,1,0,0,0,0,0,0,0,272,0,No
0,3,0,0,1,3,0,0,0,0,0,0,0,671,0,No
0,3,0,0,0,6,0,0,0,0,0,0,0,1133,0,No
10,6,10,0,0,1,0,0,0,0,0,0,0,528,0,No
4,8,5,0,3,3,0,0,0,0,0,0,0,737,1,No
6,8,17,0,0,2,0,0,0,0,0,0,0,525,1,No
10,27,65,0,4,7,0,0,0,0,0,0,0,1323,5,No
9,0,11,0,0,0,0,0,0,0,0,0,0,0,2,No
9,11,19,0,2,6,0,0,0,0,0,0,0,1406,1,No
8,4,19,0,2,3,0,0,0,0,0,0,0,499,2,No
1,0,1,0,0,1,0,0,0,0,0,0,0,528,0,No
2,0,2,0,0,4,0,0,0,0,0,0,0,1739,0,No
4,8,5,0,0,2,0,0,0,0,0,0,0,153,5,No
21,11,46,0,4,3,0,0,0,0,0,0,0,499,1,No
11,14,33,0,6,7,0,0,0,0,0,0,0,1323,0,No
3,1,7,0,1,2,0,0,0,0,0,0,0,317,0,No
11,10,23,0,3,8,0,0,0,0,0,0,0,1739,6,No
15,16,25,0,3,8,0,0,0,0,0,0,0,1289,5,No
14,16,31,0,2,7,0,0,0,0,0,0,0,1295,1,No
12,12,24,0,3,8,0,0,0,0,0,0,0,1739,6,No
9,10,21,0,0,2,0,0,0,0,0,0,0,272,6,No
4,8,17,0,6,7,0,0,0,0,0,0,0,1133,2,No
11,11,14,0,1,7,0,0,0,0,0,0,0,1133,2,No
19,20,94,0,10,9,0,0,0,0,0,0,0,1133,2,No
5,5,15,0,0,7,0,0,0,0,0,0,0,1247,1,No
6,13,18,0,2,8,0,0,0,0,0,0,0,1323,2,No
20,13,40,0,5,4,0,0,0,0,0,0,0,871,3,No
6,8,6,0,3,7,0,0,0,0,0,0,0,1224,4,No
7,3,7,0,1,4,0,0,0,0,0,0,0,819,1,No
11,11,15,0,5,5,0,0,0,0,0,0,0,819,1,No
6,7,11,0,0,7,0,0,0,0,0,0,0,1247,1,No
7,7,7,0,1,5,0,0,0,0,0,0,0,1224,4,No
9,15,10,0,3,7,0,0,0,0,0,0,0,1224,2,No
13,12,27,0,3,8,0,0,0,0,0,0,0,1739,6,No
13,0,13,0,0,0,0,0,0,0,0,0,0,0,0,No
22,1,68,0,1,3,0,0,0,0,0,0,0,819,3,No
3,6,4,0,0,1,0,0,0,0,0,0,0,178,1,No
3,5,4,0,2,5,0,0,0,0,0,0,0,871,0,No
10,1,14,0,2,2,0,0,0,0,0,0,0,499,0,No
8,16,17,0,1,7,0,0,0,0,0,0,0,1133,3,No
13,11,25,0,0,2,0,0,0,0,0,0,0,272,6,No
0,3,0,0,0,6,0,0,0,0,0,0,0,1133,0,No
1,7,2,0,2,7,0,0,0,0,0,0,0,1235,2,No
7,5,9,0,1,6,0,0,0,0,0,0,0,1739,1,No
16,20,34,0,8,5,0,0,0,0,0,0,0,819,2,No
12,14,34,0,2,6,0,0,0,0,0,0,0,1406,1,No
0,0,0,0,0,5,0,0,0,0,0,0,0,1339,1,No
2,2,5,0,0,1,0,0,0,0,0,0,0,262,0,No
1,1,2,0,0,1,0,0,0,0,0,0,0,262,0,No
2,0,7,0,0,1,0,0,0,0,0,0,0,482,2,No
2,1,2,0,1,1,0,0,0,0,0,0,0,482,0,No
1,1,5,0,0,1,0,0,0,0,0,0,0,482,0,No
7,4,7,0,3,6,0,0,0,0,0,0,0,1778,2,No
3,2,3,0,2,6,0,0,0,0,0,0,0,1238,0,No
2,2,2,0,1,5,0,0,0,0,0,0,0,1535,0,No
5,3,7,0,1,5,0,0,0,0,0,0,0,1778,0,No
7,7,14,0,1,6,0,0,0,0,0,0,0,1687,0,No
14,13,28,0,3,6,0,0,0,0,0,0,0,1714,1,No
2,0,2,0,0,4,0,0,0,0,0,0,0,1739,0,No
0,0,0,0,0,5,0,0,0,0,0,0,0,1739,1,No
8,7,11,0,1,6,0,0,0,0,0,0,0,1687,0,No
5,2,5,0,1,6,0,0,0,0,0,0,0,1228,0,No
7,4,14,0,4,7,0,0,0,0,0,0,0,1295,1,No
11,5,13,0,2,6,0,0,0,0,0,0,0,1120,0,No
8,11,12,0,0,6,0,0,0,0,0,0,0,1708,0,No
17,14,17,0,4,7,0,0,0,0,0,0,0,1708,0,No
21,12,41,0,2,8,0,0,0,0,0,0,0,1778,0,No
5,2,5,0,0,1,0,0,0,0,0,0,0,178,0,No
18,15,26,0,2,8,0,0,0,0,0,0,0,1603,0,No
18,17,19,0,3,8,0,0,0,0,0,0,0,1729,0,No
9,5,15,0,0,2,0,0,0,0,0,0,0,498,3,No
5,5,8,0,0,6,0,0,0,0,0,0,0,1535,1,No
4,0,4,0,0,1,0,0,0,0,0,0,0,1120,0,No
3,1,5,0,1,2,0,0,0,0,0,0,0,759,0,No
3,1,5,0,1,4,0,0,0,0,0,0,0,1458,0,No
2,0,2,0,1,4,0,0,0,0,0,0,0,1458,0,No
4,1,4,0,1,5,0,0,0,0,0,0,0,1228,1,No
3,2,6,0,0,2,0,0,0,0,0,0,0,737,0,No
1,2,10,0,1,4,0,0,0,0,0,0,0,1225,0,No
0,0,0,0,0,4,0,0,0,0,0,0,0,1739,0,No
0,1,0,0,0,4,0,0,0,0,0,0,0,1739,0,No
3,0,3,0,0,5,0,0,0,0,0,0,0,1228,0,No
1,0,2,0,1,4,0,0,0,0,0,0,0,1739,0,No
1,0,2,0,1,5,0,0,0,0,0,0,0,1228,0,No
1,1,2,0,0,4,0,0,0,0,0,0,0,1228,0,No
1,2,3,0,0,4,0,0,0,0,0,0,0,1228,0,No
1,0,1,0,0,4,0,0,0,0,0,0,0,1739,0,No
5,0,5,0,1,5,0,0,0,0,0,0,0,1778,3,No
32,3,82,0,2,5,0,0,0,0,0,0,0,1147,0,No
8,1,25,0,2,8,0,0,0,0,0,0,0,1687,0,No
2,1,2,0,0,3,0,0,0,0,0,0,0,1497,0,No
5,1,5,0,3,8,0,0,0,0,0,0,0,1687,1,No
3,1,3,0,1,5,0,0,0,0,0,0,0,1295,0,No
2,1,3,0,1,5,0,0,0,0,0,0,0,1687,0,No
5,1,8,0,3,8,0,0,0,0,0,0,0,1687,1,No
8,5,16,0,0,2,0,0,0,0,0,0,0,273,4,No
1,0,1,0,0,4,0,0,0,0,0,0,0,1739,0,No
6,1,30,0,2,7,0,0,0,0,0,0,0,1295,0,No
4,1,5,0,1,8,0,0,0,0,0,0,0,1295,3,No
9,1,26,0,2,9,0,0,0,0,0,0,0,1295,6,No
20,0,30,0,5,7,0,0,0,0,0,0,0,1295,0,No
0,0,0,0,0,3,0,0,0,0,0,0,0,1739,0,No
5,1,9,0,0,1,0,0,0,0,0,0,0,297,0,No
9,1,14,0,1,6,0,0,0,0,0,0,0,1295,1,No
1,0,1,0,2,1,0,0,0,0,0,0,0,769,0,No
9,0,30,0,0,3,0,0,0,0,0,0,0,1108,1,No
8,1,47,0,2,2,0,0,0,0,0,0,0,478,2,No
1,0,1,0,0,5,0,0,0,0,0,0,0,1739,0,No
1,1,5,0,0,1,0,0,0,0,0,0,0,262,0,No
2,1,2,0,0,1,0,0,0,0,0,0,0,262,0,No
1,0,1,0,0,5,0,0,0,0,0,0,0,1739,0,No
16,1,20,0,0,3,0,0,0,0,0,0,0,822,4,No
1,0,1,0,0,5,0,0,0,0,0,0,0,1339,0,No
6,4,7,0,0,4,0,0,0,0,0,0,0,1224,0,No
1,1,1,0,0,4,0,0,0,0,0,0,0,1339,0,No
2,0,2,0,0,3,0,0,0,0,0,0,0,730,0,No
19,62,78,0,0,1,0,0,0,0,0,0,0,219,19,No
4,0,8,0,0,2,0,0,0,0,0,0,0,219,4,No
2,0,4,0,0,2,0,0,0,0,0,0,0,261,0,No
1,0,2,0,0,2,0,0,0,0,0,0,0,219,1,No
1,0,2,0,0,1,0,0,0,0,0,0,0,548,1,No
1,6,14,0,1,3,0,0,0,0,0,0,0,1100,2,No
4,1,4,0,0,5,0,0,0,0,0,0,0,1339,0,No
5,1,14,0,1,2,0,0,0,0,0,0,0,764,0,No
4,1,4,0,0,1,0,0,0,0,0,0,0,87,0,No
6,1,6,0,1,3,0,0,0,0,0,0,0,764,0,No
7,0,8,0,0,4,0,0,0,0,0,0,0,1778,0,No
15,45,151,0,9,9,0,0,0,0,0,0,0,1112,8,Yes
3,2,13,0,0,1,0,0,0,0,0,0,0,478,0,No
10,9,84,0,1,5,0,0,0,0,0,0,0,877,1,No
7,11,13,0,2,7,0,0,0,0,0,0,0,1654,3,No
2,9,23,0,3,5,0,0,0,0,0,0,0,1086,3,No
15,17,38,0,4,8,0,0,0,0,0,0,0,1331,5,No
1,5,10,0,1,5,0,0,0,0,0,0,0,1141,0,No
1,2,1,0,1,6,0,0,0,0,0,0,0,1394,0,No
2,1,2,0,1,5,0,0,0,0,0,0,0,1339,0,No
5,3,11,0,1,3,0,0,0,0,0,0,0,794,1,No
5,8,29,0,7,6,0,0,0,0,0,0,0,1228,2,No
10,34,50,0,4,9,0,0,0,0,0,0,0,1228,5,No
7,0,19,0,0,1,0,0,0,0,0,0,0,525,2,No
1,2,2,0,0,2,0,0,0,0,0,0,0,602,0,No
11,3,16,0,0,6,0,0,0,0,0,0,0,1732,0,No
4,1,4,11,2,3,0,0,-11,0,1,4,6,1778,0,No
2,0,2,0,0,3,0,0,0,0,0,0,0,1739,0,No
20,7,68,0,2,5,0,0,0,0,0,0,0,1767,0,Yes
19,0,37,0,1,4,0,0,0,0,0,0,0,1732,0,No
6,0,15,0,2,5,0,0,0,0,0,0,0,1778,1,No
5,1,5,0,2,6,0,0,0,0,0,0,0,1752,0,No
9,2,9,0,1,4,0,0,0,0,0,0,0,1735,1,No
8,0,13,0,0,5,0,0,0,0,0,0,0,1133,0,No
12,5,19,0,0,3,0,0,0,0,0,0,0,858,9,No
17,2,24,0,0,5,0,0,0,0,0,0,0,1723,0,No
27,6,34,0,2,5,0,0,0,0,0,0,0,1765,3,No
2,0,2,0,2,5,0,0,0,0,0,0,0,1765,0,No
6,0,8,0,0,1,0,0,0,0,0,0,0,273,0,No
16,3,16,0,0,7,0,0,0,0,0,0,0,1339,0,No
8,1,12,0,0,2,0,0,0,0,0,0,0,602,1,No
8,0,11,0,0,5,0,0,0,0,0,0,0,1413,0,No
8,2,8,0,1,5,0,0,0,0,0,0,0,1735,1,No
5,1,7,0,0,5,0,0,0,0,0,0,0,1732,0,No
25,4,33,0,0,5,0,0,0,0,0,0,0,1743,0,No
10,0,10,0,0,1,0,0,0,0,0,0,0,478,0,No
4,0,4,0,0,4,0,0,0,0,0,0,0,1767,0,No
41,7,47,0,0,6,0,0,0,0,0,0,0,1723,0,No
31,3,39,0,2,6,0,0,0,0,0,0,0,1235,0,No
16,1,17,0,0,5,0,0,0,0,0,0,0,1228,0,No
0,1,0,0,0,4,0,0,0,0,0,0,0,1732,0,No
6,4,6,0,2,5,0,0,0,0,0,0,0,1308,0,No
18,5,19,0,0,5,0,0,0,0,0,0,0,1616,0,No
0,1,0,0,0,5,0,0,0,0,0,0,0,1732,0,No
4,1,4,0,0,4,0,0,0,0,0,0,0,1739,0,No
13,2,27,0,0,4,0,0,0,0,0,0,0,1133,1,No
6,1,8,0,0,4,0,0,0,0,0,0,0,1133,0,No
5,2,7,0,0,4,0,0,0,0,0,0,0,1133,0,No
8,1,8,0,0,5,0,0,0,0,0,0,0,1339,0,No
3,0,3,0,0,4,0,0,0,0,0,0,0,1732,0,No
0,1,0,0,0,5,0,0,0,0,0,0,0,1732,0,No
6,4,8,0,1,7,0,0,0,0,0,0,0,1339,0,No
6,2,6,0,0,4,0,0,0,0,0,0,0,1767,0,No
5,0,10,0,0,4,0,0,0,0,0,0,0,1616,0,No
4,0,4,0,0,3,0,0,0,0,0,0,0,1616,0,No
10,4,14,0,0,5,0,0,0,0,0,0,0,1732,0,No
5,3,7,0,0,5,0,0,0,0,0,0,0,1574,0,No
3,2,4,0,0,5,0,0,0,0,0,0,0,1778,0,No
0,1,0,0,1,4,0,0,0,0,0,0,0,1732,0,No
14,4,18,0,0,1,0,0,0,0,0,0,0,268,0,No
11,4,16,5,0,5,1,1,-3,0,1,1,1,1732,0,Yes
5,2,5,8,1,4,8,8,8,8,1,4,6,1732,0,No
5,3,7,0,0,5,0,0,0,0,0,0,0,1574,0,No
3,2,4,0,0,5,0,0,0,0,0,0,0,1778,0,No
5,3,7,0,0,5,0,0,0,0,0,0,0,1732,0,No
4,2,4,0,0,4,0,0,0,0,0,0,0,1732,0,No
0,1,0,0,0,4,0,0,0,0,0,0,0,1732,0,No
0,1,0,0,0,4,0,0,0,0,0,0,0,1732,0,No
5,3,7,0,1,7,0,0,0,0,0,0,0,1732,0,No
4,2,4,0,0,4,0,0,0,0,0,0,0,1732,0,No
0,1,0,0,0,4,0,0,0,0,0,0,0,1732,0,No
18,6,43,0,0,6,0,0,0,0,0,0,0,1702,0,No
0,0,0,0,0,3,0,0,0,0,0,0,0,1739,0,No
11,4,16,0,0,5,0,0,0,0,0,0,0,1732,0,Yes
5,1,5,8,1,5,8,8,8,8,1,4,6,1778,0,No
5,3,7,0,0,5,0,0,0,0,0,0,0,1574,0,No
3,2,4,0,0,5,0,0,0,0,0,0,0,1778,0,No
5,3,7,0,0,5,0,0,0,0,0,0,0,1732,0,No
4,1,4,0,0,5,0,0,0,0,0,0,0,1778,0,No
0,1,0,0,0,4,0,0,0,0,0,0,0,1732,0,No
8,3,19,0,0,2,0,0,0,0,0,0,0,858,1,No
3,2,5,0,0,5,0,0,0,0,0,0,0,1778,0,No
0,1,0,0,0,4,0,0,0,0,0,0,0,1732,0,No
5,3,7,0,0,6,0,0,0,0,0,0,0,1732,0,No
4,1,4,0,0,5,0,0,0,0,0,0,0,1778,0,No
0,1,0,0,0,4,0,0,0,0,0,0,0,1732,0,No
51,18,95,0,1,5,0,0,0,0,0,0,0,1732,0,No
57,12,96,4,5,11,3,3,2,2,1,1,1,1732,1,No
10,4,14,0,0,5,0,0,0,0,0,0,0,1732,0,Yes
5,3,7,0,0,5,0,0,0,0,0,0,0,1574,0,No
3,2,4,0,0,5,0,0,0,0,0,0,0,1778,0,No
4,3,5,0,0,5,0,0,0,0,0,0,0,1732,0,No
0,1,0,0,1,4,0,0,0,0,0,0,0,1732,0,No
10,3,23,0,0,2,0,0,0,0,0,0,0,858,1,No
3,2,5,0,0,5,0,0,0,0,0,0,0,1778,0,No
0,1,0,0,1,4,0,0,0,0,0,0,0,1732,0,No
4,3,5,0,0,6,0,0,0,0,0,0,0,1732,0,No
0,1,0,0,1,4,0,0,0,0,0,0,0,1732,0,No
3,1,3,0,0,4,0,0,0,0,0,0,0,1778,0,No
4,2,4,0,0,4,0,0,0,0,0,0,0,1778,0,No
5,2,5,0,0,4,0,0,0,0,0,0,0,1778,0,No
5,2,5,0,0,4,0,0,0,0,0,0,0,1778,0,No
4,2,4,0,0,4,0,0,0,0,0,0,0,1778,0,No
2,1,2,0,0,5,0,0,0,0,0,0,0,1739,0,No
4,1,4,0,0,3,0,0,0,0,0,0,0,1739,0,No
5,2,5,0,0,4,0,0,0,0,0,0,0,1778,0,No
5,4,5,0,0,4,0,0,0,0,0,0,0,1778,0,No
6,3,6,0,0,4,0,0,0,0,0,0,0,1778,0,No
5,3,5,0,0,4,0,0,0,0,0,0,0,1778,0,No
5,4,5,0,0,4,0,0,0,0,0,0,0,1778,0,No
0,0,0,0,0,5,0,0,0,0,0,0,0,1739,0,No
4,2,4,0,0,4,0,0,0,0,0,0,0,1339,0,No
9,6,9,0,1,5,0,0,0,0,0,0,0,1739,0,No
7,3,7,0,1,4,0,0,0,0,0,0,0,1778,0,No
7,3,7,0,0,4,0,0,0,0,0,0,0,1778,0,No
8,6,8,0,0,4,0,0,0,0,0,0,0,1778,0,No
22,9,22,0,1,6,0,0,0,0,0,0,0,1778,0,No
5,4,5,0,0,4,0,0,0,0,0,0,0,1778,0,No
4,2,4,0,0,4,0,0,0,0,0,0,0,1778,0,No
4,4,4,0,0,6,0,0,0,0,0,0,0,1778,0,No
5,4,5,0,1,6,0,0,0,0,0,0,0,1778,0,No
10,4,10,0,1,4,0,0,0,0,0,0,0,1778,0,No
8,3,8,0,0,4,0,0,0,0,0,0,0,1778,0,No
15,6,15,0,1,6,0,0,0,0,0,0,0,1778,0,No
5,2,5,0,0,4,0,0,0,0,0,0,0,1778,0,No
5,4,5,0,0,4,0,0,0,0,0,0,0,1778,0,No
2,1,6,0,2,8,0,0,0,0,0,0,0,1735,2,No
9,3,17,0,2,4,0,0,0,0,0,0,0,1778,2,No
9,10,54,0,1,9,0,0,0,0,0,0,0,1522,3,No
3,2,5,0,0,4,0,0,0,0,0,0,0,1767,0,No
4,3,6,0,0,1,0,0,0,0,0,0,0,525,0,No
5,2,7,0,0,4,0,0,0,0,0,0,0,1767,0,Yes
5,8,11,0,1,4,0,0,0,0,0,0,0,1767,0,No
4,6,9,0,0,5,0,0,0,0,0,0,0,1767,0,No
2,3,6,0,1,7,0,0,0,0,0,0,0,1735,2,No
5,2,7,0,0,4,0,0,0,0,0,0,0,1767,0,No
5,10,11,0,0,4,0,0,0,0,0,0,0,1767,0,No
6,5,9,0,0,4,0,0,0,0,0,0,0,1767,0,No
5,4,8,0,0,4,0,0,0,0,0,0,0,1141,0,No
5,5,7,0,0,5,0,0,0,0,0,0,0,1702,0,No
4,3,4,0,0,4,0,0,0,0,0,0,0,1235,0,No
1,0,6,0,2,6,0,0,0,0,0,0,0,1778,0,No
9,9,27,0,0,5,0,0,0,0,0,0,0,1308,0,No
7,4,10,0,2,4,0,0,0,0,0,0,0,1133,0,No
8,4,12,0,0,4,0,0,0,0,0,0,0,1133,0,No
9,19,33,0,0,7,0,0,0,0,0,0,0,1723,0,No
30,36,89,0,2,7,0,0,0,0,0,0,0,1767,0,No
5,12,13,0,0,4,0,0,0,0,0,0,0,1767,0,No
11,2,19,0,1,1,0,0,0,0,0,0,0,457,1,No
4,5,6,0,0,1,0,0,0,0,0,0,0,181,0,No
20,17,116,0,5,7,0,0,0,0,0,0,0,1778,10,No
11,8,22,0,2,5,0,0,0,0,0,0,0,1767,0,No
9,7,14,0,0,4,0,0,0,0,0,0,0,1767,0,No
18,18,25,0,2,9,0,0,0,0,0,0,0,1522,0,Yes
5,2,7,0,0,4,0,0,0,0,0,0,0,1767,0,No
5,10,11,0,0,4,0,0,0,0,0,0,0,1767,0,No
4,0,4,0,0,1,0,0,0,0,0,0,0,226,0,No
7,0,11,0,0,1,0,0,0,0,0,0,0,226,0,No
3,0,3,0,0,1,0,0,0,0,0,0,0,226,0,No
3,0,3,0,0,1,0,0,0,0,0,0,0,226,1,No
7,0,8,0,1,1,0,0,0,0,0,0,0,457,0,No
3,0,3,0,0,1,0,0,0,0,0,0,0,226,0,No
30,0,55,0,0,1,0,0,0,0,0,0,0,268,1,No
0,0,0,0,0,1,0,0,0,0,0,0,0,268,1,No
0,0,0,0,0,0,0,0,0,0,0,0,0,0,0,No
2,2,2,0,0,4,0,0,0,0,0,0,0,1749,0,No
1,2,2,0,0,5,0,0,0,0,0,0,0,1778,0,No
1,4,6,0,0,6,0,0,0,0,0,0,0,1778,0,No
1,3,2,0,1,5,0,0,0,0,0,0,0,1749,0,No
0,1,0,0,0,5,0,0,0,0,0,0,0,1778,0,No
0,0,0,0,0,3,0,0,0,0,0,0,0,1778,0,No
1,1,1,0,0,3,0,0,0,0,0,0,0,1749,0,No
0,0,0,0,0,4,0,0,0,0,0,0,0,1574,0,No
1,6,10,0,2,9,0,0,0,0,0,0,0,1333,1,No
2,1,2,0,3,4,0,0,0,0,0,0,0,1778,0,No
0,0,0,0,0,4,0,0,0,0,0,0,0,1574,0,No
1,2,7,0,2,5,0,0,0,0,0,0,0,1574,1,No
0,0,0,0,0,4,0,0,0,0,0,0,0,1574,0,No
1,4,11,0,2,5,0,0,0,0,0,0,0,1574,2,No
0,0,0,0,0,4,0,0,0,0,0,0,0,1574,0,No
1,4,5,0,2,3,0,0,0,0,0,0,0,875,1,No
1,1,2,0,0,4,0,0,0,0,0,0,0,1574,0,No
0,0,0,0,0,4,0,0,0,0,0,0,0,1574,0,No
3,7,22,14,2,7,13,12,12,12,2,3,3,1574,1,No
4,1,7,0,2,5,0,0,0,0,0,0,0,1574,0,No
0,0,0,0,0,4,0,0,0,0,0,0,0,1339,0,No
1,3,5,0,2,5,0,0,0,0,0,0,0,1235,0,No
0,0,0,0,0,4,0,0,0,0,0,0,0,1574,0,No
1,8,7,0,3,6,0,0,0,0,0,0,0,1308,3,No
0,0,0,0,0,4,0,0,0,0,0,0,0,1339,0,No
1,4,9,0,2,5,0,0,0,0,0,0,0,1574,1,No
0,0,0,0,0,4,0,0,0,0,0,0,0,1339,0,No
1,3,5,0,2,5,0,0,0,0,0,0,0,1339,1,No
0,0,0,0,0,4,0,0,0,0,0,0,0,1339,0,No
1,2,7,0,2,8,0,0,0,0,0,0,0,1339,1,No
0,0,0,0,0,4,0,0,0,0,0,0,0,1574,0,No
0,0,0,0,1,4,0,0,0,0,0,0,0,1574,0,No
2,15,18,0,1,1,0,0,0,0,0,0,0,545,0,No
1,3,8,0,2,5,0,0,0,0,0,0,0,1574,0,No
0,0,0,0,0,4,0,0,0,0,0,0,0,1574,0,No
1,2,3,0,2,3,0,0,0,0,0,0,0,875,0,No
0,0,0,0,0,5,0,0,0,0,0,0,0,1574,0,No
3,14,24,0,2,8,0,0,0,0,0,0,0,1245,0,Yes
1,3,24,0,2,7,0,0,0,0,0,0,0,1238,0,No
0,0,0,0,0,4,0,0,0,0,0,0,0,1739,0,No
12,3,61,0,0,8,0,0,0,0,0,0,0,1295,0,No
0,0,0,0,0,4,0,0,0,0,0,0,0,1739,0,No
0,0,0,0,0,5,0,0,0,0,0,0,0,1739,0,No
1,2,1,0,0,4,0,0,0,0,0,0,0,1308,1,No
1,8,18,0,0,5,0,0,0,0,0,0,0,1308,1,No
0,0,0,0,0,1,0,0,0,0,0,0,0,877,1,No
1,1,1,0,1,6,0,0,0,0,0,0,0,1238,0,No
18,4,18,0,0,4,0,0,0,0,0,0,0,791,0,No
4,3,4,0,0,4,0,0,0,0,0,0,0,822,0,No
2,2,2,0,0,6,0,0,0,0,0,0,0,1339,2,No
2,2,2,0,0,5,0,0,0,0,0,0,0,1739,0,No
17,1,44,0,1,5,0,0,0,0,0,0,0,1693,0,No
1,0,1,0,1,4,0,0,0,0,0,0,0,1778,0,No
3,3,3,0,0,4,0,0,0,0,0,0,0,1130,0,No
4,2,4,0,2,2,0,0,0,0,0,0,0,878,0,No
0,0,0,0,0,6,0,0,0,0,0,0,0,1739,0,No
10,25,65,48,4,6,15,15,-18,0,1,1,1,878,10,No
12,0,22,0,0,2,0,0,0,0,0,0,0,785,2,No
23,12,102,0,0,8,0,0,0,0,0,0,0,1651,44,No
3,9,19,0,0,2,0,0,0,0,0,0,0,275,1,No
4,5,10,0,0,5,0,0,0,0,0,0,0,856,0,No
2,7,11,0,4,4,0,0,0,0,0,0,0,834,0,No
3,9,19,0,0,2,0,0,0,0,0,0,0,275,3,No
2,7,12,0,1,4,0,0,0,0,0,0,0,878,1,No
26,29,81,2,12,11,1,1,0,0,1,3,4,1716,1,No
0,0,0,0,0,3,0,0,0,0,0,0,0,1739,0,No
4,9,7,0,3,6,0,0,0,0,0,0,0,1331,1,No
1,0,1,0,1,3,0,0,0,0,0,0,0,1739,0,No
2,2,5,0,2,3,0,0,0,0,0,0,0,1339,2,No
3,1,12,0,0,4,0,0,0,0,0,0,0,1207,1,No
1,0,1,0,1,3,0,0,0,0,0,0,0,1739,0,No
0,0,0,0,0,3,0,0,0,0,0,0,0,1739,0,No
4,1,5,0,1,4,0,0,0,0,0,0,0,1339,0,No
0,0,0,0,0,4,0,0,0,0,0,0,0,1339,0,No
2,10,11,0,0,4,0,0,0,0,0,0,0,1133,1,No
0,0,0,0,0,3,0,0,0,0,0,0,0,1339,1,No
2,1,2,0,0,5,0,0,0,0,0,0,0,1133,0,No
0,1,0,0,0,4,0,0,0,0,0,0,0,1339,0,No
7,16,42,0,4,5,0,0,0,0,0,0,0,1339,4,No
2,2,11,0,1,3,0,0,0,0,0,0,0,1108,0,No
7,19,49,0,4,5,0,0,0,0,0,0,0,1339,5,No
10,0,10,0,0,1,0,0,0,0,0,0,0,504,0,No
1,0,4,0,0,0,0,0,0,0,0,0,0,0,0,No
2,1,4,0,1,5,0,0,0,0,0,0,0,1778,0,No
6,1,6,0,0,5,0,0,0,0,0,0,0,1778,0,No
7,4,7,0,0,7,0,0,0,0,0,0,0,1739,0,No
0,1,0,0,1,5,0,0,0,0,0,0,0,1739,1,No
8,14,15,0,3,8,0,0,0,0,0,0,0,1703,1,No
14,16,46,0,3,9,0,0,0,0,0,0,0,1718,5,No
1,3,5,0,2,2,0,0,0,0,0,0,0,499,4,No
3,4,4,0,0,4,0,0,0,0,0,0,0,1557,0,No
12,22,39,18,3,7,16,16,14,14,2,4,7,1500,4,No
6,5,18,0,2,8,0,0,0,0,0,0,0,1235,4,No
13,13,30,0,5,8,0,0,0,0,0,0,0,1295,1,No
13,17,46,0,3,9,0,0,0,0,0,0,0,1133,6,No
10,23,38,0,5,8,0,0,0,0,0,0,0,1716,4,No
19,27,55,0,8,10,0,0,0,0,0,0,0,1707,3,No
7,17,47,0,2,7,0,0,0,0,0,0,0,1735,1,No
7,7,22,0,1,1,0,0,0,0,0,0,0,181,5,No
16,27,62,0,6,8,0,0,0,0,0,0,0,1612,6,No
0,0,0,0,0,7,0,0,0,0,0,0,0,1778,0,No
1,0,1,0,0,4,0,0,0,0,0,0,0,1778,0,No
0,0,0,0,1,2,0,0,0,0,0,0,0,499,0,No
30,33,85,0,14,10,0,0,0,0,0,0,0,1745,1,No
7,11,10,0,0,2,0,0,0,0,0,0,0,604,0,No
11,6,12,0,2,6,0,0,0,0,0,0,0,1228,0,No
19,63,208,77,9,8,42,42,7,7,1,2,2,1706,8,Yes
2,2,2,0,0,4,0,0,0,0,0,0,0,1739,0,No
3,11,5,0,0,4,0,0,0,0,0,0,0,1703,0,No
5,11,36,0,0,6,0,0,0,0,0,0,0,1718,0,No
2,2,2,0,0,5,0,0,0,0,0,0,0,1739,0,No
3,3,3,0,1,5,0,0,0,0,0,0,0,1235,0,No
4,18,38,0,3,5,0,0,0,0,0,0,0,1294,0,No
7,12,23,0,0,5,0,0,0,0,0,0,0,1133,1,No
13,24,57,0,4,6,0,0,0,0,0,0,0,1716,0,No
7,39,76,0,6,7,0,0,0,0,0,0,0,1728,5,Yes
12,14,20,0,3,5,0,0,0,0,0,0,0,1730,0,No
1,2,1,0,0,0,0,0,0,0,0,0,0,0,0,No
5,10,29,0,0,1,0,0,0,0,0,0,0,268,0,No
3,3,3,0,0,1,0,0,0,0,0,0,0,181,0,No
7,33,67,0,3,8,0,0,0,0,0,0,0,1616,1,No
7,0,9,0,0,4,0,0,0,0,0,0,0,1745,0,No
17,30,71,0,13,11,0,0,0,0,0,0,0,1728,4,Yes
3,0,18,114,1,3,114,114,114,114,1,2,2,790,1,No
10,11,46,0,3,6,0,0,0,0,0,0,0,790,1,Yes
5,0,5,0,0,4,0,0,0,0,0,0,0,1714,1,No
2,2,4,0,0,4,0,0,0,0,0,0,0,927,0,No
9,17,37,2,9,9,1,1,0,0,1,1,1,1554,5,No
1,8,10,0,2,4,0,0,0,0,0,0,0,1554,0,No
7,10,29,0,1,6,0,0,0,0,0,0,0,1778,1,No
1,1,4,0,0,1,0,0,0,0,0,0,0,472,0,No
8,7,8,0,1,4,0,0,0,0,0,0,0,790,0,No
13,10,15,0,1,5,0,0,0,0,0,0,0,789,0,No
2,4,2,0,0,5,0,0,0,0,0,0,0,1778,0,No
5,7,16,0,1,4,0,0,0,0,0,0,0,805,1,No
5,4,5,0,1,3,0,0,0,0,0,0,0,784,0,No
7,10,19,0,2,4,0,0,0,0,0,0,0,785,0,No
14,11,15,0,2,3,0,0,0,0,0,0,0,784,0,No
10,16,16,0,0,5,0,0,0,0,0,0,0,789,1,No
18,14,32,0,5,4,0,0,0,0,0,0,0,783,0,No
5,6,5,0,0,4,0,0,0,0,0,0,0,786,0,No
6,4,6,0,1,3,0,0,0,0,0,0,0,784,0,No
16,19,21,0,2,5,0,0,0,0,0,0,0,779,0,No
7,7,10,0,1,4,0,0,0,0,0,0,0,784,0,No
18,17,32,0,5,6,0,0,0,0,0,0,0,780,0,No
6,4,6,0,1,7,0,0,0,0,0,0,0,1778,0,No
6,5,16,0,1,3,0,0,0,0,0,0,0,777,0,No
2,1,2,0,1,6,0,0,0,0,0,0,0,1739,2,No
11,1,11,0,0,2,0,0,0,0,0,0,0,436,3,No
11,2,11,0,0,8,0,0,0,0,0,0,0,1214,3,No
9,2,9,0,0,2,0,0,0,0,0,0,0,436,12,No
9,3,9,0,0,7,0,0,0,0,0,0,0,1214,9,No
1,1,1,0,1,6,0,0,0,0,0,0,0,1739,0,No
10,3,10,0,0,2,0,0,0,0,0,0,0,266,0,No
15,3,20,0,0,6,0,0,0,0,0,0,0,1231,0,No
8,28,54,11,2,3,9,9,7,7,1,1,1,266,4,No
16,23,66,21,1,3,14,9,7,6,3,5,10,266,13,No
20,18,95,47,1,3,41,41,35,35,2,4,7,266,23,No
6,16,52,33,3,7,28,28,23,23,2,4,7,877,1,No
2,12,2,0,0,2,0,0,0,0,0,0,0,436,0,No
5,13,18,0,0,3,0,0,0,0,0,0,0,281,1,No
7,28,29,0,3,5,0,0,0,0,0,0,0,815,0,No
4,10,14,0,0,3,0,0,0,0,0,0,0,281,2,No
3,17,16,0,1,3,0,0,0,0,0,0,0,436,4,No
11,12,16,7,1,3,7,7,7,7,1,1,3,266,0,No
10,14,18,0,0,1,0,0,0,0,0,0,0,266,2,Yes
3,18,31,0,3,7,0,0,0,0,0,0,0,877,1,No
11,12,16,7,0,2,7,7,7,7,1,1,3,266,0,No
9,12,22,0,0,2,0,0,0,0,0,0,0,266,2,Yes
3,0,3,0,0,3,0,0,0,0,0,0,0,1778,0,No
37,63,193,0,5,6,0,0,0,0,0,0,0,1706,8,Yes
1,0,16,0,0,1,0,0,0,0,0,0,0,260,0,No
1,0,10,0,0,1,0,0,0,0,0,0,0,260,1,No
12,1,47,0,0,8,0,0,0,0,0,0,0,1273,7,No
5,4,60,0,4,8,0,0,0,0,0,0,0,1162,5,Yes
3,0,38,2,0,2,1,1,0,0,1,1,1,715,9,No
13,1,16,0,2,1,0,0,0,0,0,0,0,749,0,No
7,4,22,0,1,4,0,0,0,0,0,0,0,927,3,No
8,2,19,0,0,5,0,0,0,0,0,0,0,1477,1,No
1,0,2,0,0,4,0,0,0,0,0,0,0,1778,0,No
1,0,9,0,0,2,0,0,0,0,0,0,0,260,3,No
2,0,6,0,0,2,0,0,0,0,0,0,0,260,3,No
0,0,0,0,0,5,0,0,0,0,0,0,0,1739,0,No
10,35,133,0,9,7,0,0,0,0,0,0,0,1113,16,No
2,0,4,0,1,2,0,0,0,0,0,0,0,260,0,No
8,0,10,0,0,1,0,0,0,0,0,0,0,227,0,No
4,0,4,0,0,6,0,0,0,0,0,0,0,1739,1,No
4,0,6,0,0,1,0,0,0,0,0,0,0,227,2,No
1,0,9,0,1,2,0,0,0,0,0,0,0,260,0,No
1,1,7,0,1,1,0,0,0,0,0,0,0,141,0,No
9,13,33,0,0,5,0,0,0,0,0,0,0,1339,2,No
1,0,5,0,1,1,0,0,0,0,0,0,0,722,0,No
9,0,10,0,0,2,0,0,0,0,0,0,0,227,0,No
2,0,4,0,0,4,0,0,0,0,0,0,0,1778,0,No
2,0,2,0,0,5,0,0,0,0,0,0,0,1739,0,No
9,7,44,0,4,5,0,0,0,0,0,0,0,1436,10,No
14,0,18,0,1,5,0,0,0,0,0,0,0,1162,0,No
2,0,6,0,0,4,0,0,0,0,0,0,0,1162,1,No
3,2,4,0,1,5,0,0,0,0,0,0,0,1394,3,No
9,3,9,0,2,5,0,0,0,0,0,0,0,856,0,No
0,0,0,0,1,6,0,0,0,0,0,0,0,1739,0,No
0,1,0,0,1,5,0,0,0,0,0,0,0,1339,0,No
3,0,3,0,1,6,0,0,0,0,0,0,0,1739,0,No
8,1,8,11,2,4,4,4,-3,0,1,1,1,1228,0,No
1,7,3,0,2,4,0,0,0,0,0,0,0,794,1,No
0,0,0,0,0,3,0,0,0,0,0,0,0,1739,0,No
5,9,5,0,0,4,0,0,0,0,0,0,0,856,0,No
12,11,12,0,1,4,0,0,0,0,0,0,0,856,0,No
4,7,4,0,0,3,0,0,0,0,0,0,0,856,0,No
19,9,19,0,1,9,0,0,0,0,0,0,0,1246,0,No
18,13,25,0,6,8,0,0,0,0,0,0,0,1263,0,No
12,7,12,0,1,8,0,0,0,0,0,0,0,1263,1,No
3,1,8,0,0,1,0,0,0,0,0,0,0,490,3,No
37,22,115,11,7,9,11,11,11,11,1,3,4,1252,11,No
3,2,6,0,1,7,0,0,0,0,0,0,0,1252,3,No
1,1,1,0,0,3,0,0,0,0,0,0,0,1339,0,No
14,3,16,0,0,5,0,0,0,0,0,0,0,1240,2,No
17,2,26,0,0,5,0,0,0,0,0,0,0,1240,1,No
1,0,1,0,0,3,0,0,0,0,0,0,0,1339,0,No
4,0,4,0,0,3,0,0,0,0,0,0,0,1339,0,No
21,4,24,0,0,5,0,0,0,0,0,0,0,1240,2,No
22,7,38,0,1,5,0,0,0,0,0,0,0,1240,1,No
2,0,2,0,1,5,0,0,0,0,0,0,0,1778,1,No
1,1,1,0,1,4,0,0,0,0,0,0,0,1339,0,No
1,4,2,0,0,6,0,0,0,0,0,0,0,1252,1,No
1,2,2,0,1,4,0,0,0,0,0,0,0,1252,0,No
1,3,1,0,0,3,0,0,0,0,0,0,0,1252,0,No
1,5,2,0,0,5,0,0,0,0,0,0,0,1252,0,No
1,3,2,0,0,3,0,0,0,0,0,0,0,1252,0,No
1,0,1,0,0,3,0,0,0,0,0,0,0,1339,1,No
1,0,1,0,0,3,0,0,0,0,0,0,0,1339,1,No
1,5,3,0,0,5,0,0,0,0,0,0,0,1252,0,No
0,0,0,0,1,5,0,0,0,0,0,0,0,1739,1,No
3,0,3,0,1,1,0,0,0,0,0,0,0,261,0,No
4,1,7,0,1,1,0,0,0,0,0,0,0,261,3,No
3,3,3,0,1,1,0,0,0,0,0,0,0,261,3,No
6,0,6,0,0,1,0,0,0,0,0,0,0,261,6,No
2,0,2,0,0,1,0,0,0,0,0,0,0,261,3,No
2,0,5,0,0,1,0,0,0,0,0,0,0,261,1,No
2,0,6,3,0,2,3,3,3,3,2,6,6,261,1,No
2,0,2,0,0,1,0,0,0,0,0,0,0,261,1,No
1,0,1,0,0,1,0,0,0,0,0,0,0,261,1,No
0,0,0,0,0,1,0,0,0,0,0,0,0,261,1,No
0,0,0,0,0,1,0,0,0,0,0,0,0,170,1,No
0,0,0,0,0,1,0,0,0,0,0,0,0,170,1,No
0,0,0,0,0,1,0,0,0,0,0,0,0,261,1,No
0,0,0,0,0,2,0,0,0,0,0,0,0,170,1,No
0,0,0,0,0,1,0,0,0,0,0,0,0,261,1,No
0,0,0,16,0,3,14,14,12,12,2,6,6,261,1,No
1,6,12,0,1,3,0,0,0,0,0,0,0,261,5,No
1,11,23,0,1,2,0,0,0,0,0,0,0,261,32,No
2,5,8,8,0,2,6,6,4,4,2,6,6,261,8,No
3,1,16,16,0,3,13,10,10,9,3,7,7,260,8,No
7,0,16,0,0,2,0,0,0,0,0,0,0,261,4,No
7,0,16,0,0,1,0,0,0,0,0,0,0,261,11,No
6,0,7,0,0,1,0,0,0,0,0,0,0,223,1,No
2,2,4,0,0,1,0,0,0,0,0,0,0,261,3,No
9,0,29,0,0,3,0,0,0,0,0,0,0,230,2,No
1,0,2,0,0,1,0,0,0,0,0,0,0,261,1,No
1,0,2,0,0,1,0,0,0,0,0,0,0,261,0,No
4,0,13,0,0,1,0,0,0,0,0,0,0,261,1,No
4,2,23,0,0,1,0,0,0,0,0,0,0,261,1,No
5,2,16,2,0,3,1,1,0,0,2,6,6,261,2,No
2,0,6,0,0,3,0,0,0,0,0,0,0,1239,2,No
6,0,19,0,1,3,0,0,0,0,0,0,0,1239,1,No
3,0,9,0,1,2,0,0,0,0,0,0,0,768,5,No
2,0,9,0,1,3,0,0,0,0,0,0,0,1239,2,No
5,0,17,0,0,3,0,0,0,0,0,0,0,1239,1,No
1,0,10,0,0,1,0,0,0,0,0,0,0,878,5,No
4,0,5,0,0,2,0,0,0,0,0,0,0,831,1,No
18,9,20,0,2,1,0,0,0,0,0,0,0,592,0,No
21,3,29,0,1,1,0,0,0,0,0,0,0,592,1,No
3,4,17,16,2,4,7,7,-2,0,2,7,8,832,5,No
2,0,4,2,2,2,2,2,2,2,2,7,8,651,0,No
3,4,3,0,0,4,0,0,0,0,0,0,0,1824,0,No
7,1,14,0,0,1,0,0,0,0,0,0,0,272,0,No
11,1,13,0,0,1,0,0,0,0,0,0,0,339,0,No
0,0,0,0,0,6,0,0,0,0,0,0,0,1385,1,No
0,0,0,0,0,5,0,0,0,0,0,0,0,1385,0,No
0,1,0,0,0,4,0,0,0,0,0,0,0,1385,0,No
0,0,0,0,0,4,0,0,0,0,0,0,0,1385,0,No
9,1,14,0,0,5,0,0,0,0,0,0,0,1740,0,No
3,0,5,0,0,5,0,0,0,0,0,0,0,1824,0,No
5,1,6,0,0,4,0,0,0,0,0,0,0,1740,0,No
3,0,4,0,0,5,0,0,0,0,0,0,0,1824,0,No
2,1,2,0,1,4,0,0,0,0,0,0,0,1824,0,No
5,2,5,0,0,2,0,0,0,0,0,0,0,491,0,No
46,0,65,0,1,4,0,0,0,0,0,0,0,1760,0,No
9,1,9,0,0,2,0,0,0,0,0,0,0,852,0,No
13,0,20,0,0,5,0,0,0,0,0,0,0,1740,0,No
0,1,0,0,0,0,0,0,0,0,0,0,0,0,0,No
0,0,0,0,0,0,0,0,0,0,0,0,0,0,0,No
2,1,2,0,0,5,0,0,0,0,0,0,0,1385,0,No
1,0,1,0,0,4,0,0,0,0,0,0,0,1179,0,No
6,2,6,0,0,5,0,0,0,0,0,0,0,1179,0,No
11,1,13,0,0,3,0,0,0,0,0,0,0,1154,0,No
6,2,6,0,0,5,0,0,0,0,0,0,0,1179,0,No
0,1,0,0,0,0,0,0,0,0,0,0,0,0,0,No
3,1,3,0,0,0,0,0,0,0,0,0,0,0,0,No
9,1,14,0,0,1,0,0,0,0,0,0,0,491,1,No
5,2,5,0,0,1,0,0,0,0,0,0,0,500,0,No
11,1,11,0,0,0,0,0,0,0,0,0,0,0,0,No
0,1,0,0,0,1,0,0,0,0,0,0,0,486,0,No
3,0,4,0,2,1,0,0,0,0,0,0,0,504,1,No
7,0,7,0,0,1,0,0,0,0,0,0,0,504,0,No
2,0,2,0,0,3,0,0,0,0,0,0,0,1785,0,No
2,4,7,0,0,1,0,0,0,0,0,0,0,319,1,No
2,0,4,0,0,0,0,0,0,0,0,0,0,0,0,No
11,0,11,0,1,2,0,0,0,0,0,0,0,504,0,No
4,0,4,0,1,2,0,0,0,0,0,0,0,504,1,No
9,0,9,0,1,2,0,0,0,0,0,0,0,504,0,No
2,0,2,0,1,2,0,0,0,0,0,0,0,504,0,No
7,4,7,0,1,3,0,0,0,0,0,0,0,851,0,No
13,7,13,0,1,3,0,0,0,0,0,0,0,851,0,No
2,1,2,0,0,4,0,0,0,0,0,0,0,1824,0,No
0,0,0,0,1,1,0,0,0,0,0,0,0,503,16,No
5,3,5,0,1,3,0,0,0,0,0,0,0,851,1,No
5,1,5,0,0,4,0,0,0,0,0,0,0,846,0,No
7,3,7,0,3,3,0,0,0,0,0,0,0,847,0,No
13,5,13,0,2,3,0,0,0,0,0,0,0,850,0,Yes
10,8,10,0,0,3,0,0,0,0,0,0,0,850,0,No
18,8,18,0,3,4,0,0,0,0,0,0,0,852,0,No
5,3,5,0,0,3,0,0,0,0,0,0,0,846,0,No
6,1,6,0,0,4,0,0,0,0,0,0,0,846,0,No
16,11,16,0,3,4,0,0,0,0,0,0,0,847,0,Yes
7,2,7,0,1,7,0,0,0,0,0,0,0,1824,0,No
18,10,18,0,3,6,0,0,0,0,0,0,0,852,0,No
6,2,6,0,1,6,0,0,0,0,0,0,0,1824,1,No
4,2,4,0,1,4,0,0,0,0,0,0,0,851,0,No
6,0,8,0,0,7,0,0,0,0,0,0,0,1791,0,No
10,1,14,0,0,4,0,0,0,0,0,0,0,1662,0,No
8,2,8,0,0,4,0,0,0,0,0,0,0,1824,0,No
2,1,2,0,0,4,0,0,0,0,0,0,0,1824,0,No
3,0,7,0,0,5,0,0,0,0,0,0,0,1824,0,No
15,2,15,0,0,5,0,0,0,0,0,0,0,1385,0,No
9,1,11,0,0,2,0,0,0,0,0,0,0,648,0,No
9,1,13,0,0,6,0,0,0,0,0,0,0,1662,0,No
3,2,3,0,0,4,0,0,0,0,0,0,0,1824,0,No
5,1,5,0,0,5,0,0,0,0,0,0,0,1824,0,No
0,0,0,0,0,1,0,0,0,0,0,0,0,486,0,No
11,2,11,0,0,4,0,0,0,0,0,0,0,1762,0,No
3,1,3,0,0,4,0,0,0,0,0,0,0,1824,2,No
19,3,21,0,0,7,0,0,0,0,0,0,0,1764,0,No
2,0,3,0,1,6,0,0,0,0,0,0,0,1200,0,No
10,1,10,0,0,1,0,0,0,0,0,0,0,524,0,No
2,0,2,0,0,4,0,0,0,0,0,0,0,1781,0,No
7,2,8,0,2,2,0,0,0,0,0,0,0,545,0,No
4,2,4,0,0,4,0,0,0,0,0,0,0,1824,0,No
16,3,16,0,0,6,0,0,0,0,0,0,0,1769,0,No
10,2,23,0,2,5,0,0,0,0,0,0,0,904,1,No
4,0,4,0,0,5,0,0,0,0,0,0,0,1824,0,No
26,3,26,0,0,7,0,0,0,0,0,0,0,1281,0,No
13,1,13,0,0,6,0,0,0,0,0,0,0,1274,0,No
2,2,2,0,0,4,0,0,0,0,0,0,0,1824,0,No
10,3,10,0,0,1,0,0,0,0,0,0,0,347,1,No
18,3,18,0,0,4,0,0,0,0,0,0,0,1662,0,No
4,0,4,0,0,2,0,0,0,0,0,0,0,486,0,No
2,0,2,0,0,4,0,0,0,0,0,0,0,1385,0,No
18,2,26,0,0,5,0,0,0,0,0,0,0,1179,0,No
40,3,40,0,1,5,0,0,0,0,0,0,0,1760,0,No
35,0,39,0,1,5,0,0,0,0,0,0,0,1753,0,Yes
12,0,16,0,0,5,0,0,0,0,0,0,0,1824,0,No
24,2,25,0,0,6,0,0,0,0,0,0,0,1824,0,No
4,1,4,0,0,4,0,0,0,0,0,0,0,1824,0,No
2,2,2,0,0,4,0,0,0,0,0,0,0,1824,0,No
6,0,6,0,0,5,0,0,0,0,0,0,0,1385,0,No
2,0,2,0,0,4,0,0,0,0,0,0,0,1662,0,No
24,0,30,0,0,6,0,0,0,0,0,0,0,1791,1,No
2,0,2,0,0,5,0,0,0,0,0,0,0,1824,0,No
17,2,17,0,0,4,0,0,0,0,0,0,0,1287,0,No
20,2,27,0,0,6,0,0,0,0,0,0,0,1287,3,No
0,1,0,0,0,0,0,0,0,0,0,0,0,0,0,No
0,1,0,0,0,4,0,0,0,0,0,0,0,1785,1,No
18,1,22,0,0,5,0,0,0,0,0,0,0,1785,0,No
0,0,0,0,0,5,0,0,0,0,0,0,0,1785,0,No
2,0,4,0,0,4,0,0,0,0,0,0,0,1824,3,No
1,0,1,0,2,5,0,0,0,0,0,0,0,1824,1,No
7,4,10,0,2,3,0,0,0,0,0,0,0,1138,0,No
2,0,2,0,0,6,0,0,0,0,0,0,0,1785,0,No
4,0,7,0,1,2,0,0,0,0,0,0,0,553,1,No
1,0,1,0,0,6,0,0,0,0,0,0,0,1785,1,No
16,1,18,0,0,5,0,0,0,0,0,0,0,1824,1,No
6,1,6,0,1,5,0,0,0,0,0,0,0,1824,1,No
1,0,1,0,0,4,0,0,0,0,0,0,0,1785,0,No
0,0,0,0,0,5,0,0,0,0,0,0,0,1785,0,No
2,0,2,0,2,3,0,0,0,0,0,0,0,1111,0,No
5,0,18,0,2,7,0,0,0,0,0,0,0,1785,9,No
2,0,2,0,0,4,0,0,0,0,0,0,0,1785,0,No
1,0,1,0,0,5,0,0,0,0,0,0,0,1785,0,No
0,0,0,0,1,3,0,0,0,0,0,0,0,805,0,No
1,0,1,0,0,5,0,0,0,0,0,0,0,1785,1,No
46,1,50,0,0,7,0,0,0,0,0,0,0,1354,0,No
2,0,2,0,0,6,0,0,0,0,0,0,0,1785,1,No
2,0,5,0,0,5,0,0,0,0,0,0,0,1385,1,No
0,0,0,0,0,4,0,0,0,0,0,0,0,1785,0,No
2,0,3,0,0,5,0,0,0,0,0,0,0,1785,1,No
0,0,0,0,0,5,0,0,0,0,0,0,0,1385,0,No
0,0,0,0,0,4,0,0,0,0,0,0,0,1785,0,No
1,0,1,0,0,5,0,0,0,0,0,0,0,1785,1,No
0,0,0,0,0,5,0,0,0,0,0,0,0,1785,0,No
0,0,0,0,0,5,0,0,0,0,0,0,0,1785,0,No
0,0,0,0,1,6,0,0,0,0,0,0,0,1785,0,No
2,4,5,0,1,4,0,0,0,0,0,0,0,1385,3,No
1,0,2,0,0,5,0,0,0,0,0,0,0,1785,0,No
8,2,9,0,0,8,0,0,0,0,0,0,0,1785,0,No
2,0,5,0,0,6,0,0,0,0,0,0,0,1385,2,No
0,0,0,0,0,4,0,0,0,0,0,0,0,1785,0,No
1,0,1,0,0,5,0,0,0,0,0,0,0,1785,1,No
0,0,0,0,0,4,0,0,0,0,0,0,0,1385,0,No
2,0,2,0,0,0,0,0,0,0,0,0,0,0,0,No
0,1,0,0,0,4,0,0,0,0,0,0,0,1785,0,No
10,13,70,0,1,7,0,0,0,0,0,0,0,1267,0,Yes
4,0,23,0,0,1,0,0,0,0,0,0,0,647,4,No
5,4,10,0,2,4,0,0,0,0,0,0,0,836,1,No
2,4,19,0,2,2,0,0,0,0,0,0,0,545,2,No
3,1,4,0,0,1,0,0,0,0,0,0,0,486,1,No
0,0,0,0,0,1,0,0,0,0,0,0,0,486,0,No
0,0,0,0,0,1,0,0,0,0,0,0,0,486,0,No
0,0,0,0,0,1,0,0,0,0,0,0,0,486,0,No
0,0,0,0,0,1,0,0,0,0,0,0,0,486,0,No
0,0,0,0,0,1,0,0,0,0,0,0,0,486,0,No
0,0,0,0,0,2,0,0,0,0,0,0,0,486,0,No
0,0,0,0,0,1,0,0,0,0,0,0,0,486,0,No
0,0,0,0,0,1,0,0,0,0,0,0,0,486,0,No
0,0,0,0,1,6,0,0,0,0,0,0,0,1785,0,No
0,0,0,0,0,1,0,0,0,0,0,0,0,486,0,No
0,0,0,0,0,1,0,0,0,0,0,0,0,486,0,No
0,1,0,0,0,1,0,0,0,0,0,0,0,486,0,No
14,20,29,0,2,6,0,0,0,0,0,0,0,1785,0,No
1,2,8,0,1,3,0,0,0,0,0,0,0,1648,1,No
22,3,28,0,3,8,0,0,0,0,0,0,0,1785,0,No
1,0,1,0,0,1,0,0,0,0,0,0,0,574,0,No
5,1,14,0,0,2,0,0,0,0,0,0,0,192,0,No
4,2,10,0,2,7,0,0,0,0,0,0,0,1277,2,No
3,0,3,0,0,2,0,0,0,0,0,0,0,986,0,No
0,0,0,0,0,3,0,0,0,0,0,0,0,717,0,No
0,0,0,0,0,2,0,0,0,0,0,0,0,717,0,No
0,0,0,0,0,4,0,0,0,0,0,0,0,1785,0,No
3,1,4,0,0,5,0,0,0,0,0,0,0,1385,2,No
6,0,9,0,0,4,0,0,0,0,0,0,0,1166,0,No
3,0,3,0,0,2,0,0,0,0,0,0,0,823,1,No
2,0,2,0,0,5,0,0,0,0,0,0,0,1385,0,No
0,0,0,0,0,3,0,0,0,0,0,0,0,1785,0,No
10,0,20,0,3,6,0,0,0,0,0,0,0,1539,2,No
7,2,12,0,0,4,0,0,0,0,0,0,0,1544,1,No
1,1,4,0,0,3,0,0,0,0,0,0,0,1824,1,No
1,6,3,0,1,4,0,0,0,0,0,0,0,1454,0,No
2,0,3,0,0,3,0,0,0,0,0,0,0,1824,0,No
7,0,12,0,0,5,0,0,0,0,0,0,0,1384,1,No
2,3,12,0,2,6,0,0,0,0,0,0,0,1502,2,No
2,0,7,0,1,5,0,0,0,0,0,0,0,1504,0,No
3,0,16,0,0,6,0,0,0,0,0,0,0,1613,0,No
5,1,5,0,0,1,0,0,0,0,0,0,0,551,0,No
3,2,3,0,0,4,0,0,0,0,0,0,0,1824,0,No
2,0,2,0,0,5,0,0,0,0,0,0,0,1785,1,No
12,3,12,0,0,4,0,0,0,0,0,0,0,1824,0,No
14,10,52,0,0,5,0,0,0,0,0,0,0,1167,3,No
2,0,6,0,0,1,0,0,0,0,0,0,0,308,0,No
3,3,6,0,0,1,0,0,0,0,0,0,0,308,2,No
1,0,1,0,1,7,0,0,0,0,0,0,0,1824,0,No
8,3,28,0,0,4,0,0,0,0,0,0,0,1166,1,No
2,0,4,0,0,1,0,0,0,0,0,0,0,823,0,No
2,8,15,0,1,1,0,0,0,0,0,0,0,185,0,No
4,13,4,0,2,6,0,0,0,0,0,0,0,1785,0,No
4,6,6,0,1,7,0,0,0,0,0,0,0,1384,1,No
2,2,2,0,0,5,0,0,0,0,0,0,0,1454,0,No
0,0,0,0,0,2,0,0,0,0,0,0,0,574,0,No
8,8,9,0,1,8,0,0,0,0,0,0,0,1384,0,No
0,0,0,0,0,4,0,0,0,0,0,0,0,1785,0,No
10,12,29,0,5,6,0,0,0,0,0,0,0,1284,2,No
0,1,0,0,1,5,0,0,0,0,0,0,0,1785,0,No
6,2,10,0,2,8,0,0,0,0,0,0,0,1785,2,No
0,0,0,0,1,5,0,0,0,0,0,0,0,1785,0,No
6,7,7,0,4,3,0,0,0,0,0,0,0,783,1,No
4,2,4,0,0,3,0,0,0,0,0,0,0,783,0,No
3,5,8,0,3,8,0,0,0,0,0,0,0,1454,1,No
38,22,58,0,7,8,0,0,0,0,0,0,0,1785,15,No
4,5,5,0,0,2,0,0,0,0,0,0,0,224,2,No
3,5,13,0,0,2,0,0,0,0,0,0,0,789,0,No
13,13,38,0,10,8,0,0,0,0,0,0,0,1760,5,No
4,6,12,0,3,7,0,0,0,0,0,0,0,1760,1,No
11,4,12,0,3,7,0,0,0,0,0,0,0,1733,1,No
2,9,5,0,7,6,0,0,0,0,0,0,0,1179,0,Yes
0,0,0,0,1,3,0,0,0,0,0,0,0,1785,0,No
0,0,0,0,0,3,0,0,0,0,0,0,0,1385,0,No
0,0,0,0,0,1,0,0,0,0,0,0,0,654,0,No
0,0,0,0,0,3,0,0,0,0,0,0,0,1785,0,No
0,1,0,0,0,2,0,0,0,0,0,0,0,826,2,No
17,10,19,0,7,8,0,0,0,0,0,0,0,1784,3,Yes
0,1,0,0,0,5,0,0,0,0,0,0,0,1783,0,No
4,7,4,0,4,8,0,0,0,0,0,0,0,1733,1,No
13,15,37,0,10,8,0,0,0,0,0,0,0,1274,4,No
0,3,0,0,1,6,0,0,0,0,0,0,0,1274,0,No
23,20,49,0,5,8,0,0,0,0,0,0,0,1284,7,No
0,2,0,0,1,4,0,0,0,0,0,0,0,1454,0,No
7,17,14,0,1,3,0,0,0,0,0,0,0,574,5,No
5,8,8,0,0,2,0,0,0,0,0,0,0,318,0,No
3,3,3,0,0,4,0,0,0,0,0,0,0,1166,0,No
39,19,75,0,5,8,0,0,0,0,0,0,0,1166,3,No
12,17,73,0,5,7,0,0,0,0,0,0,0,1154,3,No
19,17,44,0,10,9,0,0,0,0,0,0,0,1785,6,No
5,6,7,0,1,2,0,0,0,0,0,0,0,224,4,No
5,9,18,0,9,8,0,0,0,0,0,0,0,1754,3,No
43,15,54,0,8,8,0,0,0,0,0,0,0,1785,17,No
13,12,37,0,1,6,0,0,0,0,0,0,0,1167,3,No
5,6,9,0,7,8,0,0,0,0,0,0,0,1733,1,No
4,5,6,0,0,4,0,0,0,0,0,0,0,917,1,No
1,3,1,0,0,5,0,0,0,0,0,0,0,1454,0,No
8,8,13,0,5,8,0,0,0,0,0,0,0,1785,5,No
2,2,3,0,0,7,0,0,0,0,0,0,0,1384,0,No
19,14,35,0,5,8,0,0,0,0,0,0,0,1778,2,No
11,12,55,0,4,9,0,0,0,0,0,0,0,1760,5,No
3,5,5,2,1,8,0,0,-2,0,2,7,17,1454,2,No
20,16,59,0,1,8,0,0,0,0,0,0,0,1193,11,No
2,5,3,0,1,8,0,0,0,0,0,0,0,1384,0,No
11,14,19,0,6,8,0,0,0,0,0,0,0,1649,2,No
11,13,17,0,5,8,0,0,0,0,0,0,0,1785,1,No
10,10,12,0,4,8,0,0,0,0,0,0,0,1284,3,No
10,11,20,0,7,8,0,0,0,0,0,0,0,1733,2,Yes
3,4,4,0,0,5,0,0,0,0,0,0,0,917,1,No
2,5,4,0,0,6,0,0,0,0,0,0,0,1454,0,Yes
2,3,2,0,0,5,0,0,0,0,0,0,0,1454,0,Yes
7,9,10,0,6,8,0,0,0,0,0,0,0,1785,4,No
2,1,2,0,0,5,0,0,0,0,0,0,0,1454,0,Yes
4,6,12,0,1,8,0,0,0,0,0,0,0,1454,1,No
2,3,2,0,0,6,0,0,0,0,0,0,0,1785,0,No
2,4,3,0,2,2,0,0,0,0,0,0,0,528,2,No
12,12,61,0,2,4,0,0,0,0,0,0,0,865,1,No
17,8,23,0,7,8,0,0,0,0,0,0,0,1277,1,No
6,10,12,0,0,1,0,0,0,0,0,0,0,318,0,No
0,3,0,0,1,3,0,0,0,0,0,0,0,717,0,No
0,3,0,0,0,6,0,0,0,0,0,0,0,1179,0,No
10,6,10,0,0,1,0,0,0,0,0,0,0,574,0,No
4,8,5,0,3,3,0,0,0,0,0,0,0,783,1,No
6,8,17,0,0,2,0,0,0,0,0,0,0,571,1,No
10,27,65,0,4,7,0,0,0,0,0,0,0,1369,5,No
9,0,11,0,0,0,0,0,0,0,0,0,0,0,2,No
9,11,19,0,2,6,0,0,0,0,0,0,0,1452,1,No
8,4,19,0,2,3,0,0,0,0,0,0,0,545,2,No
1,0,1,0,0,1,0,0,0,0,0,0,0,574,0,No
2,0,2,0,0,4,0,0,0,0,0,0,0,1785,0,No
4,8,5,0,0,2,0,0,0,0,0,0,0,199,5,No
21,11,46,0,4,3,0,0,0,0,0,0,0,545,1,No
11,14,33,0,6,7,0,0,0,0,0,0,0,1369,0,No
3,1,7,0,1,2,0,0,0,0,0,0,0,363,0,No
11,10,23,0,3,8,0,0,0,0,0,0,0,1785,6,No
15,16,25,0,3,8,0,0,0,0,0,0,0,1335,5,No
14,16,31,0,2,7,0,0,0,0,0,0,0,1341,1,No
12,12,24,0,3,8,0,0,0,0,0,0,0,1785,6,No
9,10,21,0,0,2,0,0,0,0,0,0,0,318,6,No
4,8,17,0,6,7,0,0,0,0,0,0,0,1179,2,No
11,11,14,0,1,7,0,0,0,0,0,0,0,1179,2,No
19,20,94,0,10,9,0,0,0,0,0,0,0,1179,2,No
5,5,15,0,0,7,0,0,0,0,0,0,0,1293,1,No
6,13,18,0,2,8,0,0,0,0,0,0,0,1369,2,No
20,13,40,0,5,4,0,0,0,0,0,0,0,917,3,No
6,8,6,0,3,7,0,0,0,0,0,0,0,1270,4,No
7,3,7,0,1,4,0,0,0,0,0,0,0,865,1,No
11,11,15,0,5,5,0,0,0,0,0,0,0,865,1,No
6,7,11,0,0,7,0,0,0,0,0,0,0,1293,1,No
7,7,7,0,1,5,0,0,0,0,0,0,0,1270,4,No
9,15,10,0,3,7,0,0,0,0,0,0,0,1270,2,No
13,12,27,0,3,8,0,0,0,0,0,0,0,1785,6,No
13,0,13,0,0,0,0,0,0,0,0,0,0,0,0,No
22,1,68,0,1,3,0,0,0,0,0,0,0,865,3,No
3,6,4,0,0,1,0,0,0,0,0,0,0,224,1,No
3,5,4,0,2,5,0,0,0,0,0,0,0,917,0,No
10,1,14,0,2,2,0,0,0,0,0,0,0,545,0,No
8,16,17,0,1,7,0,0,0,0,0,0,0,1179,3,No
13,11,25,0,0,2,0,0,0,0,0,0,0,318,6,No
0,3,0,0,0,6,0,0,0,0,0,0,0,1179,0,No
1,7,2,0,2,7,0,0,0,0,0,0,0,1281,2,Yes
7,5,9,0,1,6,0,0,0,0,0,0,0,1785,1,No
16,20,34,0,8,5,0,0,0,0,0,0,0,865,2,No
12,14,34,0,2,6,0,0,0,0,0,0,0,1452,1,No
0,0,0,0,0,5,0,0,0,0,0,0,0,1385,1,No
2,2,5,0,0,1,0,0,0,0,0,0,0,308,0,No
1,1,2,0,0,1,0,0,0,0,0,0,0,308,0,No
2,0,7,0,0,1,0,0,0,0,0,0,0,528,2,No
2,1,2,0,1,1,0,0,0,0,0,0,0,528,0,No
1,1,5,0,0,1,0,0,0,0,0,0,0,528,0,No
7,4,7,0,3,6,0,0,0,0,0,0,0,1824,2,No
3,2,3,0,2,6,0,0,0,0,0,0,0,1284,0,No
2,2,2,0,1,5,0,0,0,0,0,0,0,1581,0,No
5,3,7,0,1,5,0,0,0,0,0,0,0,1824,0,No
7,7,14,0,1,6,0,0,0,0,0,0,0,1733,0,No
14,13,28,0,3,6,0,0,0,0,0,0,0,1760,1,No
2,0,2,0,0,4,0,0,0,0,0,0,0,1785,0,No
0,0,0,0,0,5,0,0,0,0,0,0,0,1785,1,No
8,7,11,0,1,6,0,0,0,0,0,0,0,1733,0,No
5,2,5,0,1,6,0,0,0,0,0,0,0,1274,0,No
7,4,14,0,4,7,0,0,0,0,0,0,0,1341,1,No
11,5,13,0,2,6,0,0,0,0,0,0,0,1166,0,No
8,11,12,0,0,6,0,0,0,0,0,0,0,1754,0,No
17,14,17,0,4,7,0,0,0,0,0,0,0,1754,0,No
21,12,41,0,2,8,0,0,0,0,0,0,0,1824,0,No
5,2,5,0,0,1,0,0,0,0,0,0,0,224,0,No
18,15,26,0,2,8,0,0,0,0,0,0,0,1649,0,No
18,17,19,0,3,8,0,0,0,0,0,0,0,1775,0,No
9,5,15,0,0,2,0,0,0,0,0,0,0,544,3,No
5,5,8,0,0,6,0,0,0,0,0,0,0,1581,1,No
4,0,4,0,0,1,0,0,0,0,0,0,0,1166,0,No
3,1,5,0,1,2,0,0,0,0,0,0,0,805,0,No
3,1,5,0,1,4,0,0,0,0,0,0,0,1504,0,No
2,0,2,0,1,4,0,0,0,0,0,0,0,1504,0,No
4,1,4,0,1,5,0,0,0,0,0,0,0,1274,1,No
3,2,6,0,0,2,0,0,0,0,0,0,0,783,0,No
1,2,10,0,1,4,0,0,0,0,0,0,0,1271,0,No
0,0,0,0,0,4,0,0,0,0,0,0,0,1785,0,No
0,1,0,0,0,4,0,0,0,0,0,0,0,1785,0,No
3,0,3,0,0,5,0,0,0,0,0,0,0,1274,0,No
1,0,2,0,1,4,0,0,0,0,0,0,0,1785,0,No
1,0,2,0,1,5,0,0,0,0,0,0,0,1274,0,No
1,1,2,0,0,4,0,0,0,0,0,0,0,1274,0,No
1,2,3,0,0,4,0,0,0,0,0,0,0,1274,0,No
1,0,1,0,0,4,0,0,0,0,0,0,0,1785,0,No
5,0,5,0,1,5,0,0,0,0,0,0,0,1824,3,No
32,3,82,0,2,5,0,0,0,0,0,0,0,1193,0,No
8,1,25,0,2,8,0,0,0,0,0,0,0,1733,0,No
2,1,2,0,0,3,0,0,0,0,0,0,0,1543,0,No
5,1,5,0,3,8,0,0,0,0,0,0,0,1733,1,No
3,1,3,0,1,5,0,0,0,0,0,0,0,1341,0,No
2,1,3,0,1,5,0,0,0,0,0,0,0,1733,0,No
5,1,8,0,3,8,0,0,0,0,0,0,0,1733,1,No
8,5,16,0,0,2,0,0,0,0,0,0,0,319,4,No
1,0,1,0,0,4,0,0,0,0,0,0,0,1785,0,No
6,1,30,0,2,7,0,0,0,0,0,0,0,1341,0,No
4,1,5,0,1,8,0,0,0,0,0,0,0,1341,3,No
9,1,26,0,2,9,0,0,0,0,0,0,0,1341,6,No
20,0,30,0,5,7,0,0,0,0,0,0,0,1341,0,No
0,0,0,0,0,3,0,0,0,0,0,0,0,1785,0,No
5,1,9,0,0,1,0,0,0,0,0,0,0,343,0,No
9,1,14,0,1,6,0,0,0,0,0,0,0,1341,1,No
1,0,1,0,2,1,0,0,0,0,0,0,0,815,0,No
9,0,30,0,0,3,0,0,0,0,0,0,0,1154,1,No
8,1,47,0,2,2,0,0,0,0,0,0,0,524,2,No
1,0,1,0,0,5,0,0,0,0,0,0,0,1785,0,No
1,1,5,0,0,1,0,0,0,0,0,0,0,308,0,No
2,1,2,0,0,1,0,0,0,0,0,0,0,308,0,No
1,0,1,0,0,5,0,0,0,0,0,0,0,1785,0,No
16,1,20,0,0,3,0,0,0,0,0,0,0,868,4,No
1,0,1,0,0,5,0,0,0,0,0,0,0,1385,0,No
6,4,7,0,0,4,0,0,0,0,0,0,0,1270,0,No
1,1,1,0,0,4,0,0,0,0,0,0,0,1385,0,No
2,0,2,0,0,3,0,0,0,0,0,0,0,776,0,No
19,62,78,0,0,1,0,0,0,0,0,0,0,265,19,No
4,0,8,0,0,2,0,0,0,0,0,0,0,265,4,No
2,0,4,0,0,2,0,0,0,0,0,0,0,307,0,No
1,0,2,0,0,2,0,0,0,0,0,0,0,265,1,No
1,0,2,0,0,1,0,0,0,0,0,0,0,594,1,No
1,6,14,0,1,3,0,0,0,0,0,0,0,1146,2,No
4,1,4,0,0,5,0,0,0,0,0,0,0,1385,0,No
5,1,14,0,1,2,0,0,0,0,0,0,0,810,0,No
4,1,4,0,0,1,0,0,0,0,0,0,0,133,0,No
6,1,6,0,1,3,0,0,0,0,0,0,0,810,0,No
7,0,8,0,0,4,0,0,0,0,0,0,0,1824,0,No
15,45,151,4,10,9,2,2,0,0,1,3,3,1158,8,No
3,2,13,0,0,1,0,0,0,0,0,0,0,524,0,No
10,9,84,0,1,5,0,0,0,0,0,0,0,923,1,Yes
7,11,13,0,2,7,0,0,0,0,0,0,0,1700,3,No
2,9,23,0,3,5,0,0,0,0,0,0,0,1132,3,No
15,17,38,0,4,8,0,0,0,0,0,0,0,1377,5,Yes
1,5,10,0,1,5,0,0,0,0,0,0,0,1187,0,No
1,2,1,0,1,6,0,0,0,0,0,0,0,1440,0,No
2,1,2,0,1,5,0,0,0,0,0,0,0,1385,0,No
5,3,11,0,1,3,0,0,0,0,0,0,0,840,1,No
5,8,29,0,7,6,0,0,0,0,0,0,0,1274,2,No
10,34,50,0,4,9,0,0,0,0,0,0,0,1274,5,Yes
7,0,19,0,0,1,0,0,0,0,0,0,0,571,2,No
1,2,2,0,0,2,0,0,0,0,0,0,0,648,0,No
11,3,16,0,0,6,0,0,0,0,0,0,0,1778,0,No
4,1,4,0,2,3,0,0,0,0,0,0,0,1824,0,No
2,0,2,0,0,3,0,0,0,0,0,0,0,1785,0,No
20,7,74,46,3,5,29,29,12,12,1,2,2,1813,0,No
19,0,37,0,1,4,0,0,0,0,0,0,0,1778,0,No
6,0,15,0,2,5,0,0,0,0,0,0,0,1824,1,No
5,1,5,0,2,6,0,0,0,0,0,0,0,1798,0,No
9,2,9,0,1,4,0,0,0,0,0,0,0,1781,1,No
8,0,13,0,0,5,0,0,0,0,0,0,0,1179,0,No
12,5,19,0,0,3,0,0,0,0,0,0,0,904,9,No
17,2,24,0,0,5,0,0,0,0,0,0,0,1769,0,No
27,6,34,0,2,5,0,0,0,0,0,0,0,1811,3,No
2,0,2,0,2,5,0,0,0,0,0,0,0,1811,0,No
6,0,8,0,0,1,0,0,0,0,0,0,0,319,0,No
16,3,16,0,0,7,0,0,0,0,0,0,0,1385,0,No
8,1,12,0,0,2,0,0,0,0,0,0,0,648,1,No
8,0,11,0,0,5,0,0,0,0,0,0,0,1459,0,No
8,2,8,0,1,5,0,0,0,0,0,0,0,1781,1,No
5,1,7,0,0,5,0,0,0,0,0,0,0,1778,0,Yes
25,4,33,0,0,5,0,0,0,0,0,0,0,1789,0,No
10,0,10,0,0,1,0,0,0,0,0,0,0,524,0,No
4,0,4,0,0,4,0,0,0,0,0,0,0,1813,0,No
41,7,47,0,0,6,0,0,0,0,0,0,0,1769,0,No
31,3,39,0,2,6,0,0,0,0,0,0,0,1281,0,No
16,1,17,0,0,5,0,0,0,0,0,0,0,1274,0,No
0,1,0,0,0,4,0,0,0,0,0,0,0,1778,0,No
6,4,6,0,2,5,0,0,0,0,0,0,0,1354,0,No
18,5,19,0,0,5,0,0,0,0,0,0,0,1662,0,No
0,1,0,0,0,5,0,0,0,0,0,0,0,1778,0,No
4,1,4,0,0,4,0,0,0,0,0,0,0,1785,0,No
13,2,27,0,0,4,0,0,0,0,0,0,0,1179,1,No
6,1,8,0,0,4,0,0,0,0,0,0,0,1179,0,No
5,2,7,0,0,4,0,0,0,0,0,0,0,1179,0,No
8,1,8,0,0,5,0,0,0,0,0,0,0,1385,0,No
3,0,3,0,0,4,0,0,0,0,0,0,0,1778,0,No
0,1,0,0,0,5,0,0,0,0,0,0,0,1778,0,No
6,4,8,0,1,7,0,0,0,0,0,0,0,1385,0,No
6,2,6,0,0,4,0,0,0,0,0,0,0,1813,0,No
5,0,10,0,0,4,0,0,0,0,0,0,0,1662,0,No
4,0,4,0,0,3,0,0,0,0,0,0,0,1662,0,No
10,4,14,0,0,5,0,0,0,0,0,0,0,1778,0,No
5,3,7,0,0,5,0,0,0,0,0,0,0,1620,0,No
3,2,4,0,0,5,0,0,0,0,0,0,0,1824,0,No
0,1,0,0,1,4,0,0,0,0,0,0,0,1778,0,No
14,4,18,0,0,1,0,0,0,0,0,0,0,314,0,No
11,4,16,0,0,5,0,0,0,0,0,0,0,1778,0,Yes
5,2,5,0,1,4,0,0,0,0,0,0,0,1778,0,No
5,3,7,0,0,5,0,0,0,0,0,0,0,1620,0,No
3,2,4,0,0,5,0,0,0,0,0,0,0,1824,0,No
5,3,7,0,0,5,0,0,0,0,0,0,0,1778,0,No
4,2,4,0,0,4,0,0,0,0,0,0,0,1778,0,No
0,1,0,0,0,4,0,0,0,0,0,0,0,1778,0,No
0,1,0,0,0,4,0,0,0,0,0,0,0,1778,0,No
5,3,7,0,1,7,0,0,0,0,0,0,0,1778,0,No
4,2,4,0,0,4,0,0,0,0,0,0,0,1778,0,No
0,1,0,0,0,4,0,0,0,0,0,0,0,1778,0,No
18,6,43,0,0,6,0,0,0,0,0,0,0,1748,0,No
0,0,0,0,0,3,0,0,0,0,0,0,0,1785,0,No
11,4,16,0,0,5,0,0,0,0,0,0,0,1778,0,Yes
5,1,5,0,1,5,0,0,0,0,0,0,0,1824,0,No
5,3,7,0,0,5,0,0,0,0,0,0,0,1620,0,No
3,2,4,0,0,5,0,0,0,0,0,0,0,1824,0,No
5,3,7,0,0,5,0,0,0,0,0,0,0,1778,0,No
4,1,4,0,0,5,0,0,0,0,0,0,0,1824,0,No
0,1,0,0,0,4,0,0,0,0,0,0,0,1778,0,No
8,3,19,0,0,2,0,0,0,0,0,0,0,904,1,No
3,2,5,0,0,5,0,0,0,0,0,0,0,1824,0,No
0,1,0,0,0,4,0,0,0,0,0,0,0,1778,0,No
5,3,7,0,0,6,0,0,0,0,0,0,0,1778,0,No
4,1,4,0,0,5,0,0,0,0,0,0,0,1824,0,No
0,1,0,0,0,4,0,0,0,0,0,0,0,1778,0,No
51,18,95,0,1,5,0,0,0,0,0,0,0,1778,0,No
57,12,96,0,5,11,0,0,0,0,0,0,0,1778,1,No
10,4,14,0,0,5,0,0,0,0,0,0,0,1778,0,Yes
5,3,7,0,0,5,0,0,0,0,0,0,0,1620,0,No
3,2,4,0,0,5,0,0,0,0,0,0,0,1824,0,No
4,3,5,0,0,5,0,0,0,0,0,0,0,1778,0,No
0,1,0,0,1,4,0,0,0,0,0,0,0,1778,0,No
10,3,23,0,0,2,0,0,0,0,0,0,0,904,1,No
3,2,5,0,0,5,0,0,0,0,0,0,0,1824,0,No
0,1,0,0,1,4,0,0,0,0,0,0,0,1778,0,No
4,3,5,0,0,6,0,0,0,0,0,0,0,1778,0,No
0,1,0,0,1,4,0,0,0,0,0,0,0,1778,0,No
3,1,3,0,0,4,0,0,0,0,0,0,0,1824,0,No
4,2,4,0,0,4,0,0,0,0,0,0,0,1824,0,No
5,2,5,0,0,4,0,0,0,0,0,0,0,1824,0,No
5,2,5,0,0,4,0,0,0,0,0,0,0,1824,0,No
4,2,4,0,0,4,0,0,0,0,0,0,0,1824,0,No
2,1,2,0,0,5,0,0,0,0,0,0,0,1785,0,No
4,1,4,0,0,3,0,0,0,0,0,0,0,1785,0,No
5,2,5,0,0,4,0,0,0,0,0,0,0,1824,0,No
5,4,5,0,0,4,0,0,0,0,0,0,0,1824,0,No
6,3,6,0,0,4,0,0,0,0,0,0,0,1824,0,No
5,3,5,0,0,4,0,0,0,0,0,0,0,1824,0,No
5,4,5,0,0,4,0,0,0,0,0,0,0,1824,0,No
0,0,0,0,0,5,0,0,0,0,0,0,0,1785,0,No
4,2,4,0,0,4,0,0,0,0,0,0,0,1385,0,No
9,6,9,0,1,5,0,0,0,0,0,0,0,1785,0,No
7,3,7,0,1,4,0,0,0,0,0,0,0,1824,0,No
7,3,7,0,0,4,0,0,0,0,0,0,0,1824,0,No
8,6,8,0,0,4,0,0,0,0,0,0,0,1824,0,No
22,9,22,0,1,6,0,0,0,0,0,0,0,1824,0,No
5,4,5,0,0,4,0,0,0,0,0,0,0,1824,0,No
4,2,4,0,0,4,0,0,0,0,0,0,0,1824,0,No
4,4,4,0,0,6,0,0,0,0,0,0,0,1824,0,No
5,4,5,0,1,6,0,0,0,0,0,0,0,1824,0,No
10,4,10,0,1,4,0,0,0,0,0,0,0,1824,0,No
8,3,8,0,0,4,0,0,0,0,0,0,0,1824,0,No
15,6,15,0,1,6,0,0,0,0,0,0,0,1824,0,No
5,2,5,0,0,4,0,0,0,0,0,0,0,1824,0,No
5,4,5,0,0,4,0,0,0,0,0,0,0,1824,0,No
2,1,6,0,2,8,0,0,0,0,0,0,0,1781,2,No
9,3,17,0,2,4,0,0,0,0,0,0,0,1824,2,No
9,10,54,0,1,9,0,0,0,0,0,0,0,1568,3,No
3,2,5,0,0,4,0,0,0,0,0,0,0,1813,0,No
4,3,6,0,0,1,0,0,0,0,0,0,0,571,0,No
5,2,7,0,0,4,0,0,0,0,0,0,0,1813,0,Yes
5,8,11,0,1,4,0,0,0,0,0,0,0,1813,0,No
4,6,9,0,0,5,0,0,0,0,0,0,0,1813,0,No
2,3,6,0,1,7,0,0,0,0,0,0,0,1781,2,No
5,2,7,0,0,4,0,0,0,0,0,0,0,1813,0,No
5,10,11,0,0,4,0,0,0,0,0,0,0,1813,0,No
6,5,9,0,0,4,0,0,0,0,0,0,0,1813,0,No
5,4,8,0,0,4,0,0,0,0,0,0,0,1187,0,No
5,5,7,0,0,5,0,0,0,0,0,0,0,1748,0,No
4,3,4,0,0,4,0,0,0,0,0,0,0,1281,0,No
1,0,6,0,2,6,0,0,0,0,0,0,0,1824,0,No
9,9,27,0,0,5,0,0,0,0,0,0,0,1354,0,No
7,4,10,0,2,4,0,0,0,0,0,0,0,1179,0,No
8,4,12,0,0,4,0,0,0,0,0,0,0,1179,0,No
9,19,33,0,0,7,0,0,0,0,0,0,0,1769,0,No
30,36,89,0,2,7,0,0,0,0,0,0,0,1813,0,No
5,12,13,0,0,4,0,0,0,0,0,0,0,1813,0,No
11,2,19,0,1,1,0,0,0,0,0,0,0,503,1,No
4,5,6,0,0,1,0,0,0,0,0,0,0,227,0,No
20,17,116,0,5,7,0,0,0,0,0,0,0,1824,10,No
11,8,22,0,2,5,0,0,0,0,0,0,0,1813,0,No
9,7,14,0,0,4,0,0,0,0,0,0,0,1813,0,No
18,18,25,2,3,10,1,1,0,0,2,7,8,1568,0,No
5,2,7,0,0,4,0,0,0,0,0,0,0,1813,0,No
5,10,11,0,0,4,0,0,0,0,0,0,0,1813,0,No
4,0,4,0,0,1,0,0,0,0,0,0,0,272,0,No
7,0,11,0,0,1,0,0,0,0,0,0,0,272,0,No
3,0,3,0,0,1,0,0,0,0,0,0,0,272,0,No
3,0,3,0,0,1,0,0,0,0,0,0,0,272,1,No
7,0,8,0,1,1,0,0,0,0,0,0,0,503,0,No
3,0,3,0,0,1,0,0,0,0,0,0,0,272,0,No
30,0,55,0,0,1,0,0,0,0,0,0,0,314,1,No
0,0,0,0,0,1,0,0,0,0,0,0,0,314,1,No
0,0,0,0,0,0,0,0,0,0,0,0,0,0,0,No
2,2,2,0,0,4,0,0,0,0,0,0,0,1795,0,No
1,2,2,0,0,5,0,0,0,0,0,0,0,1824,0,No
1,4,6,0,0,6,0,0,0,0,0,0,0,1824,0,No
1,3,2,0,1,5,0,0,0,0,0,0,0,1795,0,No
0,1,0,0,0,5,0,0,0,0,0,0,0,1824,0,No
0,0,0,0,0,3,0,0,0,0,0,0,0,1824,0,No
1,1,1,0,0,3,0,0,0,0,0,0,0,1795,0,No
0,0,0,0,0,4,0,0,0,0,0,0,0,1620,0,No
1,6,10,0,2,9,0,0,0,0,0,0,0,1379,1,No
2,1,2,0,3,4,0,0,0,0,0,0,0,1824,0,No
0,0,0,0,0,4,0,0,0,0,0,0,0,1620,0,No
1,2,7,0,2,5,0,0,0,0,0,0,0,1620,1,No
0,0,0,0,0,4,0,0,0,0,0,0,0,1620,0,No
1,4,11,0,2,5,0,0,0,0,0,0,0,1620,2,No
0,0,0,0,0,4,0,0,0,0,0,0,0,1620,0,No
1,4,5,0,2,3,0,0,0,0,0,0,0,921,1,No
1,1,2,0,0,4,0,0,0,0,0,0,0,1620,0,No
0,0,0,0,0,4,0,0,0,0,0,0,0,1620,0,No
3,7,22,0,2,7,0,0,0,0,0,0,0,1620,1,No
4,1,7,0,2,5,0,0,0,0,0,0,0,1620,0,No
0,0,0,0,0,4,0,0,0,0,0,0,0,1385,0,No
1,3,5,0,2,5,0,0,0,0,0,0,0,1281,0,No
0,0,0,0,0,4,0,0,0,0,0,0,0,1620,0,No
1,8,7,0,3,6,0,0,0,0,0,0,0,1354,3,No
0,0,0,0,0,4,0,0,0,0,0,0,0,1385,0,No
1,4,9,0,2,5,0,0,0,0,0,0,0,1620,1,No
0,0,0,0,0,4,0,0,0,0,0,0,0,1385,0,No
1,3,5,0,2,5,0,0,0,0,0,0,0,1385,1,No
0,0,0,0,0,4,0,0,0,0,0,0,0,1385,0,No
1,2,7,0,2,8,0,0,0,0,0,0,0,1385,1,No
0,0,0,0,0,4,0,0,0,0,0,0,0,1620,0,No
0,0,0,0,1,4,0,0,0,0,0,0,0,1620,0,No
2,15,18,0,1,1,0,0,0,0,0,0,0,591,0,No
1,3,8,0,2,5,0,0,0,0,0,0,0,1620,0,No
0,0,0,0,0,4,0,0,0,0,0,0,0,1620,0,No
1,2,3,0,2,3,0,0,0,0,0,0,0,921,0,No
0,0,0,0,0,5,0,0,0,0,0,0,0,1620,0,No
3,14,24,0,2,8,0,0,0,0,0,0,0,1291,0,Yes
1,3,24,0,2,7,0,0,0,0,0,0,0,1284,0,No
0,0,0,0,0,4,0,0,0,0,0,0,0,1785,0,No
12,3,61,0,0,8,0,0,0,0,0,0,0,1341,0,No
0,0,0,0,0,4,0,0,0,0,0,0,0,1785,0,No
0,0,0,0,0,5,0,0,0,0,0,0,0,1785,0,No
1,2,1,0,0,4,0,0,0,0,0,0,0,1354,1,No
1,8,18,0,0,5,0,0,0,0,0,0,0,1354,1,No
0,0,0,0,0,1,0,0,0,0,0,0,0,923,1,No
1,1,1,0,1,6,0,0,0,0,0,0,0,1284,0,No
18,4,18,0,0,4,0,0,0,0,0,0,0,837,0,No
4,3,4,0,0,4,0,0,0,0,0,0,0,868,0,No
2,2,2,0,0,6,0,0,0,0,0,0,0,1385,2,No
2,2,2,0,0,5,0,0,0,0,0,0,0,1785,0,No
17,1,44,0,1,5,0,0,0,0,0,0,0,1739,0,No
1,0,1,0,1,4,0,0,0,0,0,0,0,1824,0,No
3,3,3,0,0,4,0,0,0,0,0,0,0,1176,0,No
4,2,4,0,2,2,0,0,0,0,0,0,0,924,0,No
0,0,0,0,0,6,0,0,0,0,0,0,0,1785,0,No
10,25,65,0,4,6,0,0,0,0,0,0,0,924,10,No
12,0,22,0,0,2,0,0,0,0,0,0,0,831,2,No
23,12,102,0,0,8,0,0,0,0,0,0,0,1697,44,No
3,9,19,0,0,2,0,0,0,0,0,0,0,321,1,No
4,5,10,0,0,5,0,0,0,0,0,0,0,902,0,No
2,7,11,0,4,4,0,0,0,0,0,0,0,880,0,No
3,9,19,0,0,2,0,0,0,0,0,0,0,321,3,No
2,7,12,0,1,4,0,0,0,0,0,0,0,924,1,No
26,29,81,0,12,11,0,0,0,0,0,0,0,1762,1,Yes
0,0,0,0,0,3,0,0,0,0,0,0,0,1785,0,No
4,9,7,0,3,6,0,0,0,0,0,0,0,1377,1,No
1,0,1,0,1,3,0,0,0,0,0,0,0,1785,0,No
2,2,5,0,2,3,0,0,0,0,0,0,0,1385,2,No
3,1,12,0,0,4,0,0,0,0,0,0,0,1253,1,Yes
1,0,1,0,1,3,0,0,0,0,0,0,0,1785,0,No
0,0,0,0,0,3,0,0,0,0,0,0,0,1785,0,No
4,1,5,0,1,4,0,0,0,0,0,0,0,1385,0,No
0,0,0,0,0,4,0,0,0,0,0,0,0,1385,0,No
2,10,11,0,0,4,0,0,0,0,0,0,0,1179,1,No
0,0,0,0,0,3,0,0,0,0,0,0,0,1385,1,No
2,1,2,0,0,5,0,0,0,0,0,0,0,1179,0,No
0,1,0,0,0,4,0,0,0,0,0,0,0,1385,0,No
7,16,42,0,4,5,0,0,0,0,0,0,0,1385,4,No
2,2,11,0,1,3,0,0,0,0,0,0,0,1154,0,No
7,19,49,0,4,5,0,0,0,0,0,0,0,1385,5,No
10,0,10,0,0,1,0,0,0,0,0,0,0,550,0,No
1,0,4,0,0,0,0,0,0,0,0,0,0,0,0,No
2,1,4,0,1,5,0,0,0,0,0,0,0,1824,0,No
6,1,6,0,0,5,0,0,0,0,0,0,0,1824,0,No
7,4,7,0,0,7,0,0,0,0,0,0,0,1785,0,No
0,1,0,0,1,5,0,0,0,0,0,0,0,1785,1,No
8,14,15,0,3,8,0,0,0,0,0,0,0,1749,1,No
14,16,46,0,3,9,0,0,0,0,0,0,0,1764,5,No
1,3,5,0,2,2,0,0,0,0,0,0,0,545,4,No
3,4,4,0,0,4,0,0,0,0,0,0,0,1603,0,No
12,22,39,0,3,7,0,0,0,0,0,0,0,1546,4,No
6,5,18,0,2,8,0,0,0,0,0,0,0,1281,4,No
13,13,30,0,5,8,0,0,0,0,0,0,0,1341,1,No
13,17,46,0,3,9,0,0,0,0,0,0,0,1179,6,Yes
10,23,38,0,5,8,0,0,0,0,0,0,0,1762,4,No
19,26,55,2,8,10,0,0,-2,0,2,7,17,1753,3,No
7,17,47,0,2,7,0,0,0,0,0,0,0,1781,1,No
7,7,22,0,1,1,0,0,0,0,0,0,0,227,5,No
16,27,62,0,6,8,0,0,0,0,0,0,0,1658,6,Yes
0,0,0,0,0,7,0,0,0,0,0,0,0,1824,0,No
1,0,1,0,0,4,0,0,0,0,0,0,0,1824,0,No
0,0,0,0,1,2,0,0,0,0,0,0,0,545,0,No
30,33,85,0,14,10,0,0,0,0,0,0,0,1791,1,Yes
7,11,10,0,0,2,0,0,0,0,0,0,0,650,0,No
11,6,12,0,2,6,0,0,0,0,0,0,0,1274,0,No
19,63,208,0,9,8,0,0,0,0,0,0,0,1752,8,Yes
2,2,2,0,0,4,0,0,0,0,0,0,0,1785,0,No
3,11,5,0,0,4,0,0,0,0,0,0,0,1749,0,No
5,11,36,0,0,6,0,0,0,0,0,0,0,1764,0,No
2,2,2,0,0,5,0,0,0,0,0,0,0,1785,0,No
3,3,3,0,1,5,0,0,0,0,0,0,0,1281,0,No
4,18,38,0,3,5,0,0,0,0,0,0,0,1340,0,No
7,12,23,0,0,5,0,0,0,0,0,0,0,1179,1,No
13,24,57,0,4,6,0,0,0,0,0,0,0,1762,0,No
7,39,76,0,6,7,0,0,0,0,0,0,0,1774,5,Yes
12,14,20,0,3,5,0,0,0,0,0,0,0,1776,0,No
1,2,1,0,0,0,0,0,0,0,0,0,0,0,0,No
5,10,29,0,0,1,0,0,0,0,0,0,0,314,0,No
3,3,3,0,0,1,0,0,0,0,0,0,0,227,0,No
7,33,67,0,3,8,0,0,0,0,0,0,0,1662,1,No
7,0,9,0,0,4,0,0,0,0,0,0,0,1791,0,No
17,30,71,0,13,11,0,0,0,0,0,0,0,1774,4,Yes
3,0,18,0,1,3,0,0,0,0,0,0,0,836,1,No
11,11,51,46,4,7,41,41,36,36,2,7,8,836,2,No
5,0,5,0,0,4,0,0,0,0,0,0,0,1760,1,No
2,2,4,0,0,4,0,0,0,0,0,0,0,973,0,No
9,17,37,0,9,9,0,0,0,0,0,0,0,1600,5,No
1,8,10,0,2,4,0,0,0,0,0,0,0,1600,0,No
7,10,29,0,1,6,0,0,0,0,0,0,0,1824,1,No
1,1,4,0,0,1,0,0,0,0,0,0,0,518,0,No
8,7,8,0,1,4,0,0,0,0,0,0,0,836,0,No
13,10,15,0,1,5,0,0,0,0,0,0,0,835,0,No
2,4,2,0,0,5,0,0,0,0,0,0,0,1824,0,No
5,7,16,0,1,4,0,0,0,0,0,0,0,851,1,No
5,4,5,0,1,3,0,0,0,0,0,0,0,830,0,No
7,10,19,0,2,4,0,0,0,0,0,0,0,831,0,No
14,11,15,0,2,3,0,0,0,0,0,0,0,830,0,Yes
10,16,16,0,0,5,0,0,0,0,0,0,0,835,1,No
18,14,32,0,5,4,0,0,0,0,0,0,0,829,0,No
5,6,5,0,0,4,0,0,0,0,0,0,0,832,0,No
6,4,6,0,1,3,0,0,0,0,0,0,0,830,0,No
16,19,21,0,2,5,0,0,0,0,0,0,0,825,0,Yes
7,7,10,0,1,4,0,0,0,0,0,0,0,830,0,No
18,17,32,0,5,6,0,0,0,0,0,0,0,826,0,No
6,4,6,0,1,7,0,0,0,0,0,0,0,1824,0,No
6,5,16,0,1,3,0,0,0,0,0,0,0,823,0,No
2,1,2,0,1,6,0,0,0,0,0,0,0,1785,2,No
11,1,11,0,0,2,0,0,0,0,0,0,0,482,3,No
11,2,11,0,0,8,0,0,0,0,0,0,0,1260,3,No
0,0,0,12,1,3,6,6,0,0,2,7,17,1785,0,No
9,2,9,5,0,2,2,2,-1,0,2,7,17,482,9,No
9,3,9,64,0,7,34,34,4,4,2,7,17,1260,0,No
1,1,1,0,1,6,0,0,0,0,0,0,0,1785,0,No
10,3,10,0,0,2,0,0,0,0,0,0,0,312,0,No
15,3,20,8,0,6,6,6,4,4,2,7,17,1277,0,No
8,28,54,0,2,3,0,0,0,0,0,0,0,312,4,No
14,22,66,36,1,4,22,19,8,5,3,8,19,312,3,No
18,18,99,56,1,3,37,26,18,11,3,8,19,312,23,No
6,16,55,61,3,7,41,39,21,21,3,8,18,923,1,No
4,14,4,9,0,2,8,8,7,7,2,7,17,482,0,No
5,13,18,0,0,3,0,0,0,0,0,0,0,327,1,No
7,28,29,0,3,5,0,0,0,0,0,0,0,861,0,No
4,10,14,0,0,3,0,0,0,0,0,0,0,327,2,No
3,17,16,0,1,3,0,0,0,0,0,0,0,482,4,No
11,12,16,0,1,3,0,0,0,0,0,0,0,312,0,No
10,13,18,11,0,2,5,5,-1,0,2,7,17,312,2,Yes
3,18,31,0,3,7,0,0,0,0,0,0,0,923,1,No
11,12,16,0,0,2,0,0,0,0,0,0,0,312,0,No
9,11,22,12,0,3,5,5,-2,0,2,7,17,312,2,Yes
3,0,3,0,0,3,0,0,0,0,0,0,0,1824,0,No
36,62,191,14,6,6,0,0,-14,0,1,3,3,1752,8,No
1,0,16,0,0,1,0,0,0,0,0,0,0,306,0,No
1,0,10,0,0,1,0,0,0,0,0,0,0,306,1,No
12,1,47,0,0,8,0,0,0,0,0,0,0,1319,7,No
5,4,60,0,4,8,0,0,0,0,0,0,0,1208,5,Yes
3,0,38,0,0,2,0,0,0,0,0,0,0,761,9,No
13,1,16,0,2,1,0,0,0,0,0,0,0,795,0,No
7,4,22,0,1,4,0,0,0,0,0,0,0,973,3,No
8,2,19,0,0,5,0,0,0,0,0,0,0,1523,1,No
1,0,2,0,0,4,0,0,0,0,0,0,0,1824,0,No
1,0,9,0,0,2,0,0,0,0,0,0,0,306,3,No
2,0,6,0,0,2,0,0,0,0,0,0,0,306,3,No
0,0,0,0,0,5,0,0,0,0,0,0,0,1785,0,No
10,35,133,0,9,7,0,0,0,0,0,0,0,1159,16,No
2,0,4,0,1,2,0,0,0,0,0,0,0,306,0,No
8,0,10,0,0,1,0,0,0,0,0,0,0,273,0,No
4,0,4,0,0,6,0,0,0,0,0,0,0,1785,1,No
4,0,6,0,0,1,0,0,0,0,0,0,0,273,2,No
1,0,9,0,1,2,0,0,0,0,0,0,0,306,0,No
1,1,7,0,1,1,0,0,0,0,0,0,0,187,0,No
9,13,33,0,0,5,0,0,0,0,0,0,0,1385,2,No
1,0,5,0,1,1,0,0,0,0,0,0,0,768,0,No
9,0,10,0,0,2,0,0,0,0,0,0,0,273,0,No
2,0,4,0,0,4,0,0,0,0,0,0,0,1824,0,No
2,0,2,0,0,5,0,0,0,0,0,0,0,1785,0,No
9,7,44,0,4,5,0,0,0,0,0,0,0,1482,10,No
14,0,18,0,1,5,0,0,0,0,0,0,0,1208,0,No
2,0,6,0,0,4,0,0,0,0,0,0,0,1208,1,No
3,2,4,0,1,5,0,0,0,0,0,0,0,1440,3,No
9,3,9,0,2,5,0,0,0,0,0,0,0,902,0,No
0,0,0,0,1,6,0,0,0,0,0,0,0,1785,0,No
0,1,0,0,1,5,0,0,0,0,0,0,0,1385,0,No
3,0,3,0,1,6,0,0,0,0,0,0,0,1785,0,No
8,1,8,0,2,4,0,0,0,0,0,0,0,1274,0,No
1,7,3,0,2,4,0,0,0,0,0,0,0,840,1,No
0,0,0,0,0,3,0,0,0,0,0,0,0,1785,0,No
5,9,5,0,0,4,0,0,0,0,0,0,0,902,0,No
12,11,12,0,1,4,0,0,0,0,0,0,0,902,0,No
4,7,4,0,0,3,0,0,0,0,0,0,0,902,0,No
19,9,19,0,1,9,0,0,0,0,0,0,0,1292,0,No
18,13,25,0,6,8,0,0,0,0,0,0,0,1309,0,No
12,7,12,0,1,8,0,0,0,0,0,0,0,1309,1,No
3,1,8,0,0,1,0,0,0,0,0,0,0,536,3,No
37,22,115,0,7,9,0,0,0,0,0,0,0,1298,11,Yes
3,2,6,0,1,7,0,0,0,0,0,0,0,1298,3,No
1,1,1,0,0,3,0,0,0,0,0,0,0,1385,0,No
14,3,16,0,0,5,0,0,0,0,0,0,0,1286,2,No
17,2,26,0,0,5,0,0,0,0,0,0,0,1286,1,No
1,0,1,0,0,3,0,0,0,0,0,0,0,1385,0,No
4,0,4,0,0,3,0,0,0,0,0,0,0,1385,0,No
21,4,24,0,0,5,0,0,0,0,0,0,0,1286,2,No
22,7,38,0,1,5,0,0,0,0,0,0,0,1286,1,No
2,0,2,0,1,5,0,0,0,0,0,0,0,1824,1,No
1,1,1,0,1,4,0,0,0,0,0,0,0,1385,0,No
1,4,2,0,0,6,0,0,0,0,0,0,0,1298,1,No
1,2,2,0,1,4,0,0,0,0,0,0,0,1298,0,No
1,3,1,0,0,3,0,0,0,0,0,0,0,1298,0,No
1,5,2,0,0,5,0,0,0,0,0,0,0,1298,0,No
1,3,2,0,0,3,0,0,0,0,0,0,0,1298,0,No
1,0,1,0,0,3,0,0,0,0,0,0,0,1385,1,No
1,0,1,0,0,3,0,0,0,0,0,0,0,1385,1,No
1,5,3,0,0,5,0,0,0,0,0,0,0,1298,0,Yes
0,0,0,0,1,5,0,0,0,0,0,0,0,1785,1,No
3,0,3,0,1,1,0,0,0,0,0,0,0,307,0,No
4,1,7,0,1,1,0,0,0,0,0,0,0,307,3,No
3,3,3,0,1,1,0,0,0,0,0,0,0,307,3,No
6,0,6,0,0,1,0,0,0,0,0,0,0,307,6,No
2,0,2,0,0,1,0,0,0,0,0,0,0,307,3,No
2,0,5,0,0,1,0,0,0,0,0,0,0,307,1,No
2,0,6,0,0,2,0,0,0,0,0,0,0,307,1,No
2,0,2,0,0,1,0,0,0,0,0,0,0,307,1,No
1,0,1,0,0,1,0,0,0,0,0,0,0,307,1,No
0,0,0,0,0,1,0,0,0,0,0,0,0,307,1,No
0,0,0,0,0,1,0,0,0,0,0,0,0,216,1,No
0,0,0,0,0,1,0,0,0,0,0,0,0,216,1,No
0,0,0,0,0,1,0,0,0,0,0,0,0,307,1,No
0,0,0,0,0,2,0,0,0,0,0,0,0,216,1,No
0,0,0,0,0,1,0,0,0,0,0,0,0,307,1,No
0,0,0,0,0,3,0,0,0,0,0,0,0,307,1,No
1,6,12,0,1,3,0,0,0,0,0,0,0,307,5,No
1,11,23,0,1,2,0,0,0,0,0,0,0,307,32,No
2,5,8,0,0,2,0,0,0,0,0,0,0,307,8,No
3,1,16,0,0,3,0,0,0,0,0,0,0,306,8,No
7,0,16,0,0,2,0,0,0,0,0,0,0,307,4,No
7,0,16,0,0,1,0,0,0,0,0,0,0,307,11,No
6,0,7,0,0,1,0,0,0,0,0,0,0,269,1,No
2,2,4,0,0,1,0,0,0,0,0,0,0,307,3,No
9,0,29,0,0,3,0,0,0,0,0,0,0,276,2,No
1,0,2,0,0,1,0,0,0,0,0,0,0,307,1,No
1,0,2,0,0,1,0,0,0,0,0,0,0,307,0,No
4,0,13,0,0,1,0,0,0,0,0,0,0,307,1,No
4,2,23,0,0,1,0,0,0,0,0,0,0,307,1,No
5,2,16,0,0,3,0,0,0,0,0,0,0,307,2,No
2,0,6,0,0,3,0,0,0,0,0,0,0,1323,2,No
6,0,19,0,1,3,0,0,0,0,0,0,0,1323,1,No
3,0,9,0,1,2,0,0,0,0,0,0,0,852,5,No
2,0,9,0,1,3,0,0,0,0,0,0,0,1323,2,No
5,0,17,0,0,3,0,0,0,0,0,0,0,1323,1,No
1,0,10,0,0,1,0,0,0,0,0,0,0,962,5,No
4,0,5,0,0,2,0,0,0,0,0,0,0,915,1,No
18,9,20,0,2,1,0,0,0,0,0,0,0,676,0,No
21,3,29,0,1,1,0,0,0,0,0,0,0,676,1,No
3,4,17,0,2,4,0,0,0,0,0,0,0,916,5,No
2,0,4,0,2,2,0,0,0,0,0,0,0,735,0,No
3,4,3,0,0,4,0,0,0,0,0,0,0,1908,0,No
7,1,14,0,0,1,0,0,0,0,0,0,0,356,0,No
11,1,13,0,0,1,0,0,0,0,0,0,0,423,0,No
0,0,0,0,0,6,0,0,0,0,0,0,0,1469,1,No
0,0,0,0,0,5,0,0,0,0,0,0,0,1469,0,No
0,1,0,0,0,4,0,0,0,0,0,0,0,1469,0,No
0,0,0,0,0,4,0,0,0,0,0,0,0,1469,0,No
9,1,14,0,0,5,0,0,0,0,0,0,0,1824,0,No
3,0,5,0,0,5,0,0,0,0,0,0,0,1908,0,No
5,1,6,0,0,4,0,0,0,0,0,0,0,1824,0,No
3,0,4,0,0,5,0,0,0,0,0,0,0,1908,0,No
2,1,2,0,1,4,0,0,0,0,0,0,0,1908,0,No
5,2,5,0,0,2,0,0,0,0,0,0,0,575,0,No
46,0,65,0,1,4,0,0,0,0,0,0,0,1844,0,No
9,1,9,0,0,2,0,0,0,0,0,0,0,936,0,No
13,0,20,0,0,5,0,0,0,0,0,0,0,1824,0,No
0,1,0,0,0,0,0,0,0,0,0,0,0,0,0,No
0,0,0,0,0,0,0,0,0,0,0,0,0,0,0,No
2,1,2,0,0,5,0,0,0,0,0,0,0,1469,0,No
1,0,1,0,0,4,0,0,0,0,0,0,0,1263,0,No
6,2,6,0,0,5,0,0,0,0,0,0,0,1263,0,No
11,1,13,0,0,3,0,0,0,0,0,0,0,1238,0,No
6,2,6,0,0,5,0,0,0,0,0,0,0,1263,0,No
0,1,0,0,0,0,0,0,0,0,0,0,0,0,0,No
3,1,3,0,0,0,0,0,0,0,0,0,0,0,0,No
9,1,14,0,0,1,0,0,0,0,0,0,0,575,1,No
5,2,5,0,0,1,0,0,0,0,0,0,0,584,0,No
11,1,11,0,0,0,0,0,0,0,0,0,0,0,0,No
0,1,0,0,0,1,0,0,0,0,0,0,0,570,0,No
3,0,4,0,2,1,0,0,0,0,0,0,0,588,1,No
7,0,7,0,0,1,0,0,0,0,0,0,0,588,0,No
2,0,2,0,0,3,0,0,0,0,0,0,0,1869,0,No
2,4,7,0,0,1,0,0,0,0,0,0,0,403,1,No
2,0,4,0,0,0,0,0,0,0,0,0,0,0,0,No
11,0,11,0,1,2,0,0,0,0,0,0,0,588,0,No
4,0,4,0,1,2,0,0,0,0,0,0,0,588,1,No
9,0,9,0,1,2,0,0,0,0,0,0,0,588,0,No
2,0,2,0,1,2,0,0,0,0,0,0,0,588,0,No
7,4,7,0,1,3,0,0,0,0,0,0,0,935,0,No
13,7,13,0,1,3,0,0,0,0,0,0,0,935,0,No
2,1,2,0,0,4,0,0,0,0,0,0,0,1908,0,No
0,0,0,2,1,1,2,2,2,2,3,15,23,587,18,No
5,3,5,0,1,3,0,0,0,0,0,0,0,935,1,No
5,1,5,0,0,4,0,0,0,0,0,0,0,930,0,No
7,3,7,0,3,3,0,0,0,0,0,0,0,931,0,No
15,7,15,30,3,4,27,24,24,24,4,16,27,934,0,No
10,8,10,0,0,3,0,0,0,0,0,0,0,934,0,No
18,8,18,8,3,4,6,6,4,4,3,15,23,936,0,No
5,3,5,0,0,3,0,0,0,0,0,0,0,930,0,No
6,1,6,0,0,4,0,0,0,0,0,0,0,930,0,No
18,13,18,29,4,5,26,23,23,23,4,16,27,931,0,No
7,2,7,0,1,7,0,0,0,0,0,0,0,1908,0,No
18,10,18,8,3,6,6,6,4,4,3,15,23,936,0,No
6,2,6,0,1,6,0,0,0,0,0,0,0,1908,1,No
4,2,4,0,1,4,0,0,0,0,0,0,0,935,0,No
6,0,8,0,0,7,0,0,0,0,0,0,0,1875,0,No
10,1,14,0,0,4,0,0,0,0,0,0,0,1746,0,No
8,2,8,0,0,4,0,0,0,0,0,0,0,1908,0,No
2,1,2,0,0,4,0,0,0,0,0,0,0,1908,0,No
3,0,7,0,0,5,0,0,0,0,0,0,0,1908,0,No
15,2,15,0,0,5,0,0,0,0,0,0,0,1469,0,No
9,1,11,0,0,2,0,0,0,0,0,0,0,732,0,No
9,1,13,0,0,6,0,0,0,0,0,0,0,1746,0,No
3,2,3,0,0,4,0,0,0,0,0,0,0,1908,0,No
5,1,5,0,0,5,0,0,0,0,0,0,0,1908,0,No
0,0,0,0,0,1,0,0,0,0,0,0,0,570,0,No
11,2,11,0,0,4,0,0,0,0,0,0,0,1846,0,No
3,1,3,0,0,4,0,0,0,0,0,0,0,1908,2,No
19,3,21,0,0,7,0,0,0,0,0,0,0,1848,0,No
2,0,3,0,1,6,0,0,0,0,0,0,0,1284,0,No
10,1,10,0,0,1,0,0,0,0,0,0,0,608,0,No
2,0,2,0,0,4,0,0,0,0,0,0,0,1865,0,No
7,2,8,0,2,2,0,0,0,0,0,0,0,629,0,No
4,2,4,0,0,4,0,0,0,0,0,0,0,1908,0,No
16,3,16,0,0,6,0,0,0,0,0,0,0,1853,0,No
10,2,23,0,2,5,0,0,0,0,0,0,0,988,1,No
4,0,4,0,0,5,0,0,0,0,0,0,0,1908,0,No
26,3,26,0,0,7,0,0,0,0,0,0,0,1365,0,No
13,1,13,0,0,6,0,0,0,0,0,0,0,1358,0,No
2,2,2,0,0,4,0,0,0,0,0,0,0,1908,0,No
10,3,10,0,0,1,0,0,0,0,0,0,0,431,1,No
18,3,18,0,0,4,0,0,0,0,0,0,0,1746,0,No
4,0,4,0,0,2,0,0,0,0,0,0,0,570,0,No
2,0,2,0,0,4,0,0,0,0,0,0,0,1469,0,No
18,2,26,0,0,5,0,0,0,0,0,0,0,1263,0,No
40,3,40,0,1,5,0,0,0,0,0,0,0,1844,0,No
35,0,39,12,2,5,6,6,0,0,1,2,2,1837,0,No
12,0,16,0,0,5,0,0,0,0,0,0,0,1908,0,No
24,2,25,0,0,6,0,0,0,0,0,0,0,1908,0,No
4,1,4,0,0,4,0,0,0,0,0,0,0,1908,0,No
2,2,2,0,0,4,0,0,0,0,0,0,0,1908,0,No
6,0,6,0,0,5,0,0,0,0,0,0,0,1469,0,No
2,0,2,0,0,4,0,0,0,0,0,0,0,1746,0,No
24,0,30,0,0,6,0,0,0,0,0,0,0,1875,1,No
2,0,2,0,0,5,0,0,0,0,0,0,0,1908,0,No
17,2,17,0,0,4,0,0,0,0,0,0,0,1371,0,No
20,2,27,0,0,6,0,0,0,0,0,0,0,1371,3,No
0,1,0,0,0,0,0,0,0,0,0,0,0,0,0,No
0,1,0,0,0,4,0,0,0,0,0,0,0,1869,1,No
18,1,22,0,0,5,0,0,0,0,0,0,0,1869,0,No
0,0,0,0,0,5,0,0,0,0,0,0,0,1869,0,No
2,0,4,0,0,4,0,0,0,0,0,0,0,1908,3,No
1,0,1,0,2,5,0,0,0,0,0,0,0,1908,1,No
7,4,10,0,2,3,0,0,0,0,0,0,0,1222,0,No
2,0,2,0,0,6,0,0,0,0,0,0,0,1869,0,No
4,0,7,0,1,2,0,0,0,0,0,0,0,637,1,No
1,0,1,0,0,6,0,0,0,0,0,0,0,1869,1,No
16,1,18,0,0,5,0,0,0,0,0,0,0,1908,1,No
6,1,6,0,1,5,0,0,0,0,0,0,0,1908,1,No
1,0,1,0,0,4,0,0,0,0,0,0,0,1869,0,No
0,0,0,0,0,5,0,0,0,0,0,0,0,1869,0,No
2,0,2,0,2,3,0,0,0,0,0,0,0,1195,0,No
5,0,18,0,2,7,0,0,0,0,0,0,0,1869,9,No
0,0,0,6,0,5,3,3,0,0,2,8,14,1869,0,No
0,0,0,7,0,5,4,4,1,1,2,8,14,1869,0,No
2,0,2,0,0,4,0,0,0,0,0,0,0,1869,0,No
1,0,1,0,0,5,0,0,0,0,0,0,0,1869,0,No
0,0,0,0,1,3,0,0,0,0,0,0,0,889,0,No
1,0,1,0,0,5,0,0,0,0,0,0,0,1869,1,No
46,1,50,0,0,7,0,0,0,0,0,0,0,1438,0,No
2,0,2,0,0,6,0,0,0,0,0,0,0,1869,1,No
2,0,5,0,0,5,0,0,0,0,0,0,0,1469,1,No
0,0,0,0,0,4,0,0,0,0,0,0,0,1869,0,No
2,0,3,0,0,5,0,0,0,0,0,0,0,1869,1,No
0,0,0,0,0,5,0,0,0,0,0,0,0,1469,0,No
0,0,0,0,0,4,0,0,0,0,0,0,0,1869,0,No
1,0,1,0,0,5,0,0,0,0,0,0,0,1869,1,No
0,0,0,0,0,5,0,0,0,0,0,0,0,1869,0,No
0,0,0,0,0,5,0,0,0,0,0,0,0,1869,0,No
0,0,0,0,1,6,0,0,0,0,0,0,0,1869,0,No
2,4,5,0,1,4,0,0,0,0,0,0,0,1469,3,No
1,0,2,0,0,5,0,0,0,0,0,0,0,1869,0,No
8,2,9,0,0,8,0,0,0,0,0,0,0,1869,0,No
2,0,5,0,0,6,0,0,0,0,0,0,0,1469,2,No
0,0,0,0,0,4,0,0,0,0,0,0,0,1869,0,No
1,0,1,0,0,5,0,0,0,0,0,0,0,1869,1,No
0,0,0,0,0,4,0,0,0,0,0,0,0,1469,0,No
2,0,2,0,0,0,0,0,0,0,0,0,0,0,0,No
0,1,0,0,0,4,0,0,0,0,0,0,0,1869,0,No
10,13,71,2,2,7,1,1,0,0,1,2,2,1351,0,No
4,0,23,0,0,1,0,0,0,0,0,0,0,731,4,No
5,4,10,0,2,4,0,0,0,0,0,0,0,920,1,No
2,4,19,0,2,2,0,0,0,0,0,0,0,629,2,No
3,1,4,0,0,1,0,0,0,0,0,0,0,570,1,No
0,0,0,0,0,1,0,0,0,0,0,0,0,570,0,No
0,0,0,0,0,1,0,0,0,0,0,0,0,570,0,No
0,0,0,0,0,1,0,0,0,0,0,0,0,570,0,No
0,0,0,0,0,1,0,0,0,0,0,0,0,570,0,No
0,0,0,0,0,1,0,0,0,0,0,0,0,570,0,No
0,0,0,0,0,2,0,0,0,0,0,0,0,570,0,No
0,0,0,0,0,1,0,0,0,0,0,0,0,570,0,No
0,0,0,0,0,1,0,0,0,0,0,0,0,570,0,No
0,0,0,0,1,6,0,0,0,0,0,0,0,1869,0,No
0,0,0,0,0,1,0,0,0,0,0,0,0,570,0,No
0,0,0,0,0,1,0,0,0,0,0,0,0,570,0,No
0,1,0,0,0,1,0,0,0,0,0,0,0,570,0,No
14,20,29,0,2,6,0,0,0,0,0,0,0,1869,0,No
1,2,8,0,1,3,0,0,0,0,0,0,0,1732,1,No
22,3,28,0,3,8,0,0,0,0,0,0,0,1869,0,No
1,0,1,0,0,1,0,0,0,0,0,0,0,658,0,No
5,1,14,0,0,2,0,0,0,0,0,0,0,276,0,No
4,2,10,0,2,7,0,0,0,0,0,0,0,1361,2,No
3,0,3,0,0,2,0,0,0,0,0,0,0,1070,0,No
0,0,0,0,0,3,0,0,0,0,0,0,0,801,0,No
0,0,0,0,0,2,0,0,0,0,0,0,0,801,0,No
0,0,0,2,0,4,0,0,-2,0,3,15,23,1869,0,No
3,1,4,0,0,5,0,0,0,0,0,0,0,1469,2,No
6,0,9,0,0,4,0,0,0,0,0,0,0,1250,0,No
3,0,3,0,0,2,0,0,0,0,0,0,0,907,1,No
2,0,2,0,0,5,0,0,0,0,0,0,0,1469,0,No
0,0,0,0,0,3,0,0,0,0,0,0,0,1869,0,No
10,0,20,0,3,6,0,0,0,0,0,0,0,1623,2,No
7,2,12,0,0,4,0,0,0,0,0,0,0,1628,1,No
1,1,4,0,0,3,0,0,0,0,0,0,0,1908,1,No
1,6,3,0,1,4,0,0,0,0,0,0,0,1538,0,No
2,0,3,0,0,3,0,0,0,0,0,0,0,1908,0,No
7,0,12,0,0,5,0,0,0,0,0,0,0,1468,1,No
2,3,12,0,2,6,0,0,0,0,0,0,0,1586,2,No
2,0,7,0,1,5,0,0,0,0,0,0,0,1588,0,No
3,0,16,0,0,6,0,0,0,0,0,0,0,1697,0,No
5,1,5,0,0,1,0,0,0,0,0,0,0,635,0,No
3,2,3,0,0,4,0,0,0,0,0,0,0,1908,0,No
2,0,2,0,0,5,0,0,0,0,0,0,0,1869,1,No
12,3,12,0,0,4,0,0,0,0,0,0,0,1908,0,No
14,10,52,0,0,5,0,0,0,0,0,0,0,1251,3,No
2,0,6,0,0,1,0,0,0,0,0,0,0,392,0,No
3,3,6,0,0,1,0,0,0,0,0,0,0,392,2,No
1,0,1,0,1,7,0,0,0,0,0,0,0,1908,0,No
8,3,28,0,0,4,0,0,0,0,0,0,0,1250,1,No
2,0,4,0,0,1,0,0,0,0,0,0,0,907,0,No
2,8,15,0,1,1,0,0,0,0,0,0,0,269,0,No
4,13,4,0,2,6,0,0,0,0,0,0,0,1869,0,No
4,6,6,0,1,7,0,0,0,0,0,0,0,1468,1,No
2,2,2,0,0,5,0,0,0,0,0,0,0,1538,0,No
0,0,0,0,0,2,0,0,0,0,0,0,0,658,0,No
8,8,9,0,1,8,0,0,0,0,0,0,0,1468,0,No
0,0,0,0,0,4,0,0,0,0,0,0,0,1869,0,No
10,12,29,0,5,6,0,0,0,0,0,0,0,1368,2,No
0,1,0,0,1,5,0,0,0,0,0,0,0,1869,0,No
6,2,10,0,2,8,0,0,0,0,0,0,0,1869,2,No
0,0,0,0,1,5,0,0,0,0,0,0,0,1869,0,No
6,7,7,0,4,3,0,0,0,0,0,0,0,867,1,No
4,2,4,0,0,3,0,0,0,0,0,0,0,867,0,No
3,5,8,0,3,8,0,0,0,0,0,0,0,1538,1,No
38,22,58,0,7,8,0,0,0,0,0,0,0,1869,15,No
4,5,5,0,0,2,0,0,0,0,0,0,0,308,2,No
3,5,13,0,0,2,0,0,0,0,0,0,0,873,0,No
13,13,38,0,10,8,0,0,0,0,0,0,0,1844,5,No
4,6,12,0,3,7,0,0,0,0,0,0,0,1844,1,No
9,4,10,46,3,7,2,2,-42,0,3,15,23,1817,1,No
2,9,5,6,8,6,2,2,-2,0,1,2,6,1263,0,No
0,0,0,0,1,3,0,0,0,0,0,0,0,1869,0,No
0,0,0,0,0,3,0,0,0,0,0,0,0,1469,0,No
0,0,0,0,0,1,0,0,0,0,0,0,0,738,0,No
0,0,0,0,0,3,0,0,0,0,0,0,0,1869,0,No
0,1,0,0,0,2,0,0,0,0,0,0,0,910,2,No
17,10,19,2,8,8,1,1,0,0,1,1,1,1868,3,No
0,1,0,0,0,5,0,0,0,0,0,0,0,1867,0,No
4,7,4,0,4,8,0,0,0,0,0,0,0,1817,1,No
13,15,37,0,10,8,0,0,0,0,0,0,0,1358,4,No
0,3,0,0,1,6,0,0,0,0,0,0,0,1358,0,No
23,20,49,0,5,8,0,0,0,0,0,0,0,1368,7,No
0,2,0,0,1,4,0,0,0,0,0,0,0,1538,0,No
7,17,14,0,1,3,0,0,0,0,0,0,0,658,5,No
5,8,8,0,0,2,0,0,0,0,0,0,0,402,0,No
3,3,3,0,0,4,0,0,0,0,0,0,0,1250,0,No
39,19,75,0,5,8,0,0,0,0,0,0,0,1250,3,No
12,17,73,0,5,7,0,0,0,0,0,0,0,1238,3,No
20,18,45,11,10,10,11,11,11,11,2,7,14,1869,6,No
5,6,7,0,1,2,0,0,0,0,0,0,0,308,4,No
5,9,18,0,9,8,0,0,0,0,0,0,0,1838,3,No
43,15,54,0,8,8,0,0,0,0,0,0,0,1869,17,No
13,12,37,0,1,6,0,0,0,0,0,0,0,1251,3,No
5,6,9,0,7,8,0,0,0,0,0,0,0,1817,1,No
4,5,6,0,0,4,0,0,0,0,0,0,0,1001,1,No
1,3,1,0,0,5,0,0,0,0,0,0,0,1538,0,No
8,8,13,36,5,8,20,20,4,4,1,1,1,1869,5,No
2,2,3,0,0,7,0,0,0,0,0,0,0,1468,0,No
19,14,35,0,5,8,0,0,0,0,0,0,0,1862,2,No
11,12,55,0,4,9,0,0,0,0,0,0,0,1844,5,No
3,5,5,0,1,8,0,0,0,0,0,0,0,1538,2,No
20,16,59,0,1,8,0,0,0,0,0,0,0,1277,11,No
2,5,3,0,1,8,0,0,0,0,0,0,0,1468,0,No
11,14,19,0,6,8,0,0,0,0,0,0,0,1733,2,No
12,13,18,15,5,9,12,12,9,9,2,7,14,1869,1,No
10,10,12,0,4,8,0,0,0,0,0,0,0,1368,3,No
10,11,20,18,8,8,7,7,-4,0,1,2,6,1817,2,No
3,4,4,0,0,5,0,0,0,0,0,0,0,1001,1,No
2,6,5,14,1,6,12,12,10,10,1,2,6,1538,0,No
2,3,2,4,1,5,2,2,0,0,1,2,6,1538,0,No
7,9,10,0,6,8,0,0,0,0,0,0,0,1869,4,No
2,1,2,2,1,5,1,1,0,0,1,2,6,1538,0,No
4,6,12,0,1,8,0,0,0,0,0,0,0,1538,1,No
2,3,2,0,0,6,0,0,0,0,0,0,0,1869,0,No
2,4,3,0,2,2,0,0,0,0,0,0,0,612,2,No
12,12,61,1,3,5,1,1,1,1,1,1,1,949,1,No
17,8,23,0,7,8,0,0,0,0,0,0,0,1361,1,No
6,10,12,0,0,1,0,0,0,0,0,0,0,402,0,No
0,3,0,0,1,3,0,0,0,0,0,0,0,801,0,No
0,3,0,0,0,6,0,0,0,0,0,0,0,1263,0,No
10,6,10,0,0,1,0,0,0,0,0,0,0,658,0,No
4,8,5,0,3,3,0,0,0,0,0,0,0,867,1,No
6,8,17,0,0,2,0,0,0,0,0,0,0,655,1,No
10,27,65,0,4,7,0,0,0,0,0,0,0,1453,5,Yes
9,0,11,0,0,0,0,0,0,0,0,0,0,0,2,No
9,11,19,0,2,6,0,0,0,0,0,0,0,1536,1,No
8,4,19,0,2,3,0,0,0,0,0,0,0,629,2,No
1,0,1,0,0,1,0,0,0,0,0,0,0,658,0,No
2,0,2,0,0,4,0,0,0,0,0,0,0,1869,0,No
4,8,5,0,0,2,0,0,0,0,0,0,0,283,5,No
21,11,46,0,4,3,0,0,0,0,0,0,0,629,1,No
11,14,33,0,6,7,0,0,0,0,0,0,0,1453,0,No
3,1,7,0,1,2,0,0,0,0,0,0,0,447,0,No
11,11,23,4,3,9,4,4,4,4,2,7,14,1869,6,No
15,16,25,0,3,8,0,0,0,0,0,0,0,1419,5,No
14,16,31,0,2,7,0,0,0,0,0,0,0,1425,1,No
12,12,24,0,3,8,0,0,0,0,0,0,0,1869,6,No
9,10,21,0,0,2,0,0,0,0,0,0,0,402,6,No
4,8,17,0,6,7,0,0,0,0,0,0,0,1263,2,No
11,11,14,0,1,7,0,0,0,0,0,0,0,1263,2,No
19,20,94,0,10,9,0,0,0,0,0,0,0,1263,2,No
5,5,15,0,0,7,0,0,0,0,0,0,0,1377,1,No
6,13,18,0,2,8,0,0,0,0,0,0,0,1453,2,No
20,13,40,0,5,4,0,0,0,0,0,0,0,1001,3,No
6,8,6,0,3,7,0,0,0,0,0,0,0,1354,4,No
7,3,7,0,1,4,0,0,0,0,0,0,0,949,1,No
11,11,15,0,5,5,0,0,0,0,0,0,0,949,1,No
6,7,11,0,0,7,0,0,0,0,0,0,0,1377,1,No
7,7,7,0,1,5,0,0,0,0,0,0,0,1354,4,No
9,15,10,0,3,7,0,0,0,0,0,0,0,1354,2,No
9,2,13,132,0,1,131,105,130,105,3,9,16,59,3,No
13,14,27,6,3,9,6,6,6,6,2,7,14,1869,6,No
13,0,13,0,0,0,0,0,0,0,0,0,0,0,0,No
22,1,68,0,1,3,0,0,0,0,0,0,0,949,3,No
3,6,4,0,0,1,0,0,0,0,0,0,0,308,1,No
3,5,4,0,2,5,0,0,0,0,0,0,0,1001,0,No
10,1,14,0,2,2,0,0,0,0,0,0,0,629,0,No
8,16,17,0,1,7,0,0,0,0,0,0,0,1263,3,No
13,12,25,4,0,3,4,4,4,4,2,7,14,402,6,No
0,3,0,0,0,6,0,0,0,0,0,0,0,1263,0,No
1,5,2,4,3,7,1,1,-2,0,1,2,6,1365,0,No
7,5,9,0,1,6,0,0,0,0,0,0,0,1869,1,No
16,20,32,13,8,5,2,2,-9,0,3,15,23,949,2,No
12,14,34,0,2,6,0,0,0,0,0,0,0,1536,1,No
0,0,0,0,0,5,0,0,0,0,0,0,0,1469,1,No
2,2,5,0,0,1,0,0,0,0,0,0,0,392,0,No
1,1,2,0,0,1,0,0,0,0,0,0,0,392,0,No
2,0,7,0,0,1,0,0,0,0,0,0,0,612,2,No
2,1,2,0,1,1,0,0,0,0,0,0,0,612,0,No
1,1,5,0,0,1,0,0,0,0,0,0,0,612,0,No
7,4,7,0,3,6,0,0,0,0,0,0,0,1908,2,No
3,2,3,0,2,6,0,0,0,0,0,0,0,1368,0,No
2,2,2,0,1,5,0,0,0,0,0,0,0,1665,0,No
5,3,7,0,1,5,0,0,0,0,0,0,0,1908,0,No
7,7,14,0,1,6,0,0,0,0,0,0,0,1817,0,No
14,13,28,0,3,6,0,0,0,0,0,0,0,1844,1,No
2,0,2,0,0,4,0,0,0,0,0,0,0,1869,0,No
0,0,0,0,0,5,0,0,0,0,0,0,0,1869,1,No
3,0,3,12,0,4,7,7,2,2,2,7,14,1469,3,No
8,7,11,0,1,6,0,0,0,0,0,0,0,1817,0,No
5,2,5,0,1,6,0,0,0,0,0,0,0,1358,0,No
7,4,14,0,4,7,0,0,0,0,0,0,0,1425,1,No
14,8,18,25,2,7,24,24,23,23,2,7,14,1250,0,No
8,11,12,0,0,6,0,0,0,0,0,0,0,1838,0,No
17,14,18,12,4,7,9,9,6,6,3,15,23,1838,0,No
21,12,41,0,2,8,0,0,0,0,0,0,0,1908,0,No
5,2,5,0,0,1,0,0,0,0,0,0,0,308,0,No
21,18,31,23,2,9,22,22,21,21,2,7,14,1733,1,No
18,17,19,4,3,8,2,2,0,0,3,15,23,1859,0,No
9,5,15,0,0,2,0,0,0,0,0,0,0,628,3,No
5,5,8,0,0,6,0,0,0,0,0,0,0,1665,1,No
4,0,4,0,0,1,0,0,0,0,0,0,0,1250,0,No
3,1,5,0,1,2,0,0,0,0,0,0,0,889,0,No
3,1,5,0,1,4,0,0,0,0,0,0,0,1588,0,No
2,0,2,0,1,4,0,0,0,0,0,0,0,1588,0,No
4,1,4,0,1,5,0,0,0,0,0,0,0,1358,1,No
3,2,6,0,0,2,0,0,0,0,0,0,0,867,0,No
1,2,10,0,1,4,0,0,0,0,0,0,0,1355,0,No
0,0,0,0,0,4,0,0,0,0,0,0,0,1869,0,No
0,1,0,0,0,4,0,0,0,0,0,0,0,1869,0,No
3,0,3,0,0,5,0,0,0,0,0,0,0,1358,0,No
1,0,2,0,1,4,0,0,0,0,0,0,0,1869,0,No
1,0,2,0,1,5,0,0,0,0,0,0,0,1358,0,No
1,1,2,0,0,4,0,0,0,0,0,0,0,1358,0,No
1,4,4,124,0,1,95,94,66,94,3,9,16,59,1,No
1,2,3,0,0,4,0,0,0,0,0,0,0,1358,0,No
1,0,1,0,0,4,0,0,0,0,0,0,0,1869,0,No
5,0,5,0,1,5,0,0,0,0,0,0,0,1908,3,No
32,3,82,0,2,5,0,0,0,0,0,0,0,1277,0,No
8,1,25,0,2,8,0,0,0,0,0,0,0,1817,0,No
2,1,2,0,0,3,0,0,0,0,0,0,0,1627,0,No
5,1,5,0,3,8,0,0,0,0,0,0,0,1817,1,No
3,1,3,0,1,5,0,0,0,0,0,0,0,1425,0,No
2,1,3,0,1,5,0,0,0,0,0,0,0,1817,0,No
5,1,8,0,3,8,0,0,0,0,0,0,0,1817,1,No
8,5,16,0,0,2,0,0,0,0,0,0,0,403,4,No
1,0,1,0,0,4,0,0,0,0,0,0,0,1869,0,No
6,1,30,0,2,7,0,0,0,0,0,0,0,1425,0,No
4,1,5,0,1,8,0,0,0,0,0,0,0,1425,3,No
9,1,26,20,2,9,13,13,6,6,1,1,1,1425,6,No
20,0,30,0,5,7,0,0,0,0,0,0,0,1425,0,Yes
0,0,0,0,0,3,0,0,0,0,0,0,0,1869,0,No
5,1,9,0,0,1,0,0,0,0,0,0,0,427,0,No
9,1,14,0,1,6,0,0,0,0,0,0,0,1425,1,No
1,0,1,0,2,1,0,0,0,0,0,0,0,899,0,No
9,0,30,0,0,3,0,0,0,0,0,0,0,1238,1,No
8,1,47,0,2,2,0,0,0,0,0,0,0,608,2,No
1,0,1,0,0,5,0,0,0,0,0,0,0,1869,0,No
1,1,5,0,0,1,0,0,0,0,0,0,0,392,0,No
2,1,2,0,0,1,0,0,0,0,0,0,0,392,0,No
1,0,1,0,0,5,0,0,0,0,0,0,0,1869,0,No
16,1,20,0,0,3,0,0,0,0,0,0,0,952,4,No
1,0,1,0,0,5,0,0,0,0,0,0,0,1469,0,No
6,4,7,0,0,4,0,0,0,0,0,0,0,1354,0,No
1,1,1,0,0,4,0,0,0,0,0,0,0,1469,0,No
2,0,2,0,0,3,0,0,0,0,0,0,0,860,0,No
19,62,78,0,0,1,0,0,0,0,0,0,0,349,19,No
4,0,8,0,0,2,0,0,0,0,0,0,0,349,4,No
2,0,4,0,0,2,0,0,0,0,0,0,0,391,0,No
1,0,2,0,0,2,0,0,0,0,0,0,0,349,1,No
1,0,2,0,0,1,0,0,0,0,0,0,0,678,1,No
1,6,14,0,1,3,0,0,0,0,0,0,0,1230,2,No
4,1,4,0,0,5,0,0,0,0,0,0,0,1469,0,No
5,1,14,0,1,2,0,0,0,0,0,0,0,894,0,No
4,1,4,0,0,1,0,0,0,0,0,0,0,217,0,No
6,1,6,0,1,3,0,0,0,0,0,0,0,894,0,No
7,0,8,0,0,4,0,0,0,0,0,0,0,1908,0,No
15,45,151,0,10,9,0,0,0,0,0,0,0,1242,8,No
3,2,13,0,0,1,0,0,0,0,0,0,0,608,0,No
10,9,85,19,2,5,14,14,9,9,1,2,2,1007,1,No
7,11,13,0,2,7,0,0,0,0,0,0,0,1784,3,No
2,9,23,0,3,5,0,0,0,0,0,0,0,1216,3,No
15,17,38,4,5,9,2,2,0,0,1,2,2,1461,5,No
1,5,10,0,1,5,0,0,0,0,0,0,0,1271,0,No
1,2,1,0,1,6,0,0,0,0,0,0,0,1524,0,No
2,1,2,0,1,5,0,0,0,0,0,0,0,1469,0,No
5,3,11,0,1,3,0,0,0,0,0,0,0,924,1,No
5,8,29,0,7,6,0,0,0,0,0,0,0,1358,2,No
10,34,52,39,5,10,23,7,7,3,6,18,26,1358,5,No
7,0,19,0,0,1,0,0,0,0,0,0,0,655,2,No
1,2,2,0,0,2,0,0,0,0,0,0,0,732,0,No
11,3,16,0,0,6,0,0,0,0,0,0,0,1862,0,No
4,1,4,0,2,3,0,0,0,0,0,0,0,1908,0,No
2,0,2,0,0,3,0,0,0,0,0,0,0,1869,0,No
20,7,74,0,3,5,0,0,0,0,0,0,0,1897,0,No
19,0,37,0,1,4,0,0,0,0,0,0,0,1862,0,No
6,0,15,0,2,5,0,0,0,0,0,0,0,1908,1,No
5,1,5,0,2,6,0,0,0,0,0,0,0,1882,0,No
9,2,9,0,1,4,0,0,0,0,0,0,0,1865,1,No
8,0,13,0,0,5,0,0,0,0,0,0,0,1263,0,No
12,5,19,0,0,3,0,0,0,0,0,0,0,988,9,No
17,2,24,0,0,5,0,0,0,0,0,0,0,1853,0,No
27,6,34,0,2,5,0,0,0,0,0,0,0,1895,3,No
2,0,2,0,2,5,0,0,0,0,0,0,0,1895,0,No
6,0,8,0,0,1,0,0,0,0,0,0,0,403,0,No
16,3,16,0,0,7,0,0,0,0,0,0,0,1469,0,No
8,1,12,0,0,2,0,0,0,0,0,0,0,732,1,No
8,0,11,0,0,5,0,0,0,0,0,0,0,1543,0,No
8,2,8,0,1,5,0,0,0,0,0,0,0,1865,1,No
5,1,7,3,1,5,1,1,-1,0,1,2,2,1862,0,No
25,4,33,0,0,5,0,0,0,0,0,0,0,1873,0,No
10,0,10,0,0,1,0,0,0,0,0,0,0,608,0,No
4,0,4,0,0,4,0,0,0,0,0,0,0,1897,0,No
41,7,47,0,0,6,0,0,0,0,0,0,0,1853,0,No
31,3,39,0,2,6,0,0,0,0,0,0,0,1365,0,No
16,1,17,0,0,5,0,0,0,0,0,0,0,1358,0,No
0,1,0,0,0,4,0,0,0,0,0,0,0,1862,0,No
6,4,6,0,2,5,0,0,0,0,0,0,0,1438,0,No
18,5,19,0,0,5,0,0,0,0,0,0,0,1746,0,No
0,1,0,0,0,5,0,0,0,0,0,0,0,1862,0,No
4,1,4,0,0,4,0,0,0,0,0,0,0,1869,0,No
13,2,27,0,0,4,0,0,0,0,0,0,0,1263,1,No
6,1,8,0,0,4,0,0,0,0,0,0,0,1263,0,No
5,2,7,0,0,4,0,0,0,0,0,0,0,1263,0,No
8,1,8,0,0,5,0,0,0,0,0,0,0,1469,0,No
3,0,3,0,0,4,0,0,0,0,0,0,0,1862,0,No
0,1,0,0,0,5,0,0,0,0,0,0,0,1862,0,No
6,4,8,0,1,7,0,0,0,0,0,0,0,1469,0,No
6,2,6,0,0,4,0,0,0,0,0,0,0,1897,0,No
5,0,10,0,0,4,0,0,0,0,0,0,0,1746,0,No
4,0,4,0,0,3,0,0,0,0,0,0,0,1746,0,No
10,4,14,0,0,5,0,0,0,0,0,0,0,1862,0,No
5,3,7,0,0,5,0,0,0,0,0,0,0,1704,0,No
3,2,4,0,0,5,0,0,0,0,0,0,0,1908,0,No
0,1,0,0,1,4,0,0,0,0,0,0,0,1862,0,No
14,4,18,0,0,1,0,0,0,0,0,0,0,398,0,No
11,4,16,0,0,5,0,0,0,0,0,0,0,1862,0,Yes
5,2,5,0,1,4,0,0,0,0,0,0,0,1862,0,No
5,3,7,0,0,5,0,0,0,0,0,0,0,1704,0,No
3,2,4,0,0,5,0,0,0,0,0,0,0,1908,0,No
5,3,7,0,0,5,0,0,0,0,0,0,0,1862,0,No
4,2,4,0,0,4,0,0,0,0,0,0,0,1862,0,No
0,1,0,0,0,4,0,0,0,0,0,0,0,1862,0,No
0,1,0,0,0,4,0,0,0,0,0,0,0,1862,0,No
5,3,7,0,1,7,0,0,0,0,0,0,0,1862,0,No
4,2,4,0,0,4,0,0,0,0,0,0,0,1862,0,No
0,1,0,0,0,4,0,0,0,0,0,0,0,1862,0,No
18,6,43,0,0,6,0,0,0,0,0,0,0,1832,0,No
0,0,0,0,0,3,0,0,0,0,0,0,0,1869,0,No
11,4,16,0,0,5,0,0,0,0,0,0,0,1862,0,Yes
5,1,5,0,1,5,0,0,0,0,0,0,0,1908,0,No
5,3,7,0,0,5,0,0,0,0,0,0,0,1704,0,No
3,2,4,0,0,5,0,0,0,0,0,0,0,1908,0,No
5,3,7,0,0,5,0,0,0,0,0,0,0,1862,0,No
4,1,4,0,0,5,0,0,0,0,0,0,0,1908,0,No
0,1,0,0,0,4,0,0,0,0,0,0,0,1862,0,No
8,3,19,0,0,2,0,0,0,0,0,0,0,988,1,No
3,2,5,0,0,5,0,0,0,0,0,0,0,1908,0,No
0,1,0,0,0,4,0,0,0,0,0,0,0,1862,0,No
5,3,7,0,0,6,0,0,0,0,0,0,0,1862,0,No
4,1,4,0,0,5,0,0,0,0,0,0,0,1908,0,No
0,1,0,0,0,4,0,0,0,0,0,0,0,1862,0,No
51,18,95,0,1,5,0,0,0,0,0,0,0,1862,0,No
57,12,96,0,5,11,0,0,0,0,0,0,0,1862,1,No
10,4,14,0,0,5,0,0,0,0,0,0,0,1862,0,Yes
5,3,7,0,0,5,0,0,0,0,0,0,0,1704,0,No
3,2,4,0,0,5,0,0,0,0,0,0,0,1908,0,No
4,3,5,0,0,5,0,0,0,0,0,0,0,1862,0,No
0,1,0,0,1,4,0,0,0,0,0,0,0,1862,0,No
10,3,23,0,0,2,0,0,0,0,0,0,0,988,1,No
3,2,5,0,0,5,0,0,0,0,0,0,0,1908,0,No
0,1,0,0,1,4,0,0,0,0,0,0,0,1862,0,No
4,3,5,0,0,6,0,0,0,0,0,0,0,1862,0,No
0,1,0,0,1,4,0,0,0,0,0,0,0,1862,0,No
3,1,3,0,0,4,0,0,0,0,0,0,0,1908,0,No
4,2,4,0,0,4,0,0,0,0,0,0,0,1908,0,No
5,2,5,0,0,4,0,0,0,0,0,0,0,1908,0,No
5,2,5,0,0,4,0,0,0,0,0,0,0,1908,0,No
4,2,4,0,0,4,0,0,0,0,0,0,0,1908,0,No
2,1,2,0,0,5,0,0,0,0,0,0,0,1869,0,No
4,1,4,0,0,3,0,0,0,0,0,0,0,1869,0,No
5,2,5,0,0,4,0,0,0,0,0,0,0,1908,0,No
5,4,5,0,0,4,0,0,0,0,0,0,0,1908,0,No
6,3,6,0,0,4,0,0,0,0,0,0,0,1908,0,No
5,3,5,0,0,4,0,0,0,0,0,0,0,1908,0,No
5,4,5,0,0,4,0,0,0,0,0,0,0,1908,0,No
0,0,0,0,0,5,0,0,0,0,0,0,0,1869,0,No
4,2,4,0,0,4,0,0,0,0,0,0,0,1469,0,No
9,6,9,0,1,5,0,0,0,0,0,0,0,1869,0,No
7,3,7,0,1,4,0,0,0,0,0,0,0,1908,0,No
7,3,7,0,0,4,0,0,0,0,0,0,0,1908,0,No
8,6,8,0,0,4,0,0,0,0,0,0,0,1908,0,No
22,9,22,0,1,6,0,0,0,0,0,0,0,1908,0,No
5,4,5,0,0,4,0,0,0,0,0,0,0,1908,0,No
4,2,4,0,0,4,0,0,0,0,0,0,0,1908,0,No
4,4,4,0,0,6,0,0,0,0,0,0,0,1908,0,No
5,4,5,0,1,6,0,0,0,0,0,0,0,1908,0,No
10,4,10,0,1,4,0,0,0,0,0,0,0,1908,0,No
8,3,8,0,0,4,0,0,0,0,0,0,0,1908,0,No
15,6,15,0,1,6,0,0,0,0,0,0,0,1908,0,No
5,2,5,0,0,4,0,0,0,0,0,0,0,1908,0,No
5,4,5,0,0,4,0,0,0,0,0,0,0,1908,0,No
2,1,6,0,2,8,0,0,0,0,0,0,0,1865,2,No
9,3,17,0,2,4,0,0,0,0,0,0,0,1908,2,No
9,10,54,0,1,9,0,0,0,0,0,0,0,1652,3,No
3,2,5,0,0,4,0,0,0,0,0,0,0,1897,0,No
4,3,6,0,0,1,0,0,0,0,0,0,0,655,0,No
5,2,7,0,0,4,0,0,0,0,0,0,0,1897,0,Yes
5,8,11,0,1,4,0,0,0,0,0,0,0,1897,0,No
4,6,9,0,0,5,0,0,0,0,0,0,0,1897,0,No
2,3,6,0,1,7,0,0,0,0,0,0,0,1865,2,No
5,2,7,0,0,4,0,0,0,0,0,0,0,1897,0,No
5,10,11,0,0,4,0,0,0,0,0,0,0,1897,0,No
6,5,9,0,0,4,0,0,0,0,0,0,0,1897,0,No
5,4,8,0,0,4,0,0,0,0,0,0,0,1271,0,No
5,5,7,0,0,5,0,0,0,0,0,0,0,1832,0,No
4,3,4,0,0,4,0,0,0,0,0,0,0,1365,0,No
1,0,6,0,2,6,0,0,0,0,0,0,0,1908,0,No
9,9,27,0,0,5,0,0,0,0,0,0,0,1438,0,No
7,4,10,0,2,4,0,0,0,0,0,0,0,1263,0,No
8,4,12,0,0,4,0,0,0,0,0,0,0,1263,0,No
9,19,33,0,0,7,0,0,0,0,0,0,0,1853,0,No
30,36,89,0,2,7,0,0,0,0,0,0,0,1897,0,No
5,12,13,0,0,4,0,0,0,0,0,0,0,1897,0,No
11,2,19,0,1,1,0,0,0,0,0,0,0,587,1,No
4,5,6,0,0,1,0,0,0,0,0,0,0,311,0,No
20,17,116,6,5,8,2,2,-2,0,1,2,2,1908,10,Yes
11,8,22,0,2,5,0,0,0,0,0,0,0,1897,0,No
9,7,14,0,0,4,0,0,0,0,0,0,0,1897,0,No
18,18,25,0,3,10,0,0,0,0,0,0,0,1652,0,No
5,2,7,0,0,4,0,0,0,0,0,0,0,1897,0,No
5,10,11,0,0,4,0,0,0,0,0,0,0,1897,0,No
4,0,4,0,0,1,0,0,0,0,0,0,0,356,0,No
7,0,11,0,0,1,0,0,0,0,0,0,0,356,0,No
3,0,3,0,0,1,0,0,0,0,0,0,0,356,0,No
3,0,3,0,0,1,0,0,0,0,0,0,0,356,1,No
7,0,8,0,1,1,0,0,0,0,0,0,0,587,0,No
3,0,3,0,0,1,0,0,0,0,0,0,0,356,0,No
30,0,55,0,0,1,0,0,0,0,0,0,0,398,1,No
0,0,0,0,0,1,0,0,0,0,0,0,0,398,1,No
0,0,0,0,0,0,0,0,0,0,0,0,0,0,0,No
2,2,2,0,0,4,0,0,0,0,0,0,0,1879,0,No
1,2,2,0,0,5,0,0,0,0,0,0,0,1908,0,No
1,4,6,0,0,6,0,0,0,0,0,0,0,1908,0,No
1,3,2,0,1,5,0,0,0,0,0,0,0,1879,0,No
0,1,0,0,0,5,0,0,0,0,0,0,0,1908,0,No
0,0,0,0,0,3,0,0,0,0,0,0,0,1908,0,No
1,1,1,0,0,3,0,0,0,0,0,0,0,1879,0,No
0,0,0,0,0,4,0,0,0,0,0,0,0,1704,0,No
1,6,10,0,2,9,0,0,0,0,0,0,0,1463,1,No
2,1,2,0,3,4,0,0,0,0,0,0,0,1908,0,No
0,0,0,0,0,4,0,0,0,0,0,0,0,1704,0,No
1,2,7,0,2,5,0,0,0,0,0,0,0,1704,1,No
0,0,0,0,0,4,0,0,0,0,0,0,0,1704,0,No
1,4,11,0,2,5,0,0,0,0,0,0,0,1704,2,No
0,0,0,0,0,4,0,0,0,0,0,0,0,1704,0,No
1,4,5,0,2,3,0,0,0,0,0,0,0,1005,1,No
1,1,2,0,0,4,0,0,0,0,0,0,0,1704,0,No
0,0,0,0,0,4,0,0,0,0,0,0,0,1704,0,No
3,7,22,0,2,7,0,0,0,0,0,0,0,1704,1,No
4,1,7,0,2,5,0,0,0,0,0,0,0,1704,0,No
0,0,0,0,0,4,0,0,0,0,0,0,0,1469,0,No
1,3,5,0,2,5,0,0,0,0,0,0,0,1365,0,No
0,0,0,0,0,4,0,0,0,0,0,0,0,1704,0,No
1,8,7,0,3,6,0,0,0,0,0,0,0,1438,3,No
0,0,0,0,0,4,0,0,0,0,0,0,0,1469,0,No
1,4,9,0,2,5,0,0,0,0,0,0,0,1704,1,No
0,0,0,0,0,4,0,0,0,0,0,0,0,1469,0,No
1,3,5,0,2,5,0,0,0,0,0,0,0,1469,1,No
0,0,0,0,0,4,0,0,0,0,0,0,0,1469,0,No
1,2,7,0,2,8,0,0,0,0,0,0,0,1469,1,No
0,0,0,0,0,4,0,0,0,0,0,0,0,1704,0,No
0,0,0,0,1,4,0,0,0,0,0,0,0,1704,0,No
2,15,18,0,1,1,0,0,0,0,0,0,0,675,0,No
1,3,8,0,2,5,0,0,0,0,0,0,0,1704,0,No
0,0,0,0,0,4,0,0,0,0,0,0,0,1704,0,No
1,2,3,0,2,3,0,0,0,0,0,0,0,1005,0,No
0,0,0,0,0,5,0,0,0,0,0,0,0,1704,0,No
3,14,24,0,2,8,0,0,0,0,0,0,0,1375,0,Yes
1,3,24,0,2,7,0,0,0,0,0,0,0,1368,0,No
0,0,0,0,0,4,0,0,0,0,0,0,0,1869,0,No
12,3,61,0,0,8,0,0,0,0,0,0,0,1425,0,No
0,0,0,0,0,4,0,0,0,0,0,0,0,1869,0,No
0,0,0,0,0,5,0,0,0,0,0,0,0,1869,0,No
1,2,1,0,0,4,0,0,0,0,0,0,0,1438,1,No
1,8,18,0,0,5,0,0,0,0,0,0,0,1438,1,No
0,0,0,0,0,1,0,0,0,0,0,0,0,1007,1,No
1,1,1,0,1,6,0,0,0,0,0,0,0,1368,0,No
18,4,18,0,0,4,0,0,0,0,0,0,0,921,0,No
4,3,4,0,0,4,0,0,0,0,0,0,0,952,0,No
2,2,2,0,0,6,0,0,0,0,0,0,0,1469,2,No
2,2,2,0,0,5,0,0,0,0,0,0,0,1869,0,No
17,1,44,0,1,5,0,0,0,0,0,0,0,1823,0,No
1,0,1,0,1,4,0,0,0,0,0,0,0,1908,0,No
3,3,3,0,0,4,0,0,0,0,0,0,0,1260,0,No
4,2,4,0,2,2,0,0,0,0,0,0,0,1008,0,No
0,0,0,0,0,6,0,0,0,0,0,0,0,1869,0,No
10,25,65,0,4,6,0,0,0,0,0,0,0,1008,10,No
12,0,22,0,0,2,0,0,0,0,0,0,0,915,2,No
23,12,102,0,0,8,0,0,0,0,0,0,0,1781,44,No
3,9,19,0,0,2,0,0,0,0,0,0,0,405,1,No
4,5,10,0,0,5,0,0,0,0,0,0,0,986,0,No
2,7,11,0,4,4,0,0,0,0,0,0,0,964,0,No
3,9,19,0,0,2,0,0,0,0,0,0,0,405,3,No
2,7,12,0,1,4,0,0,0,0,0,0,0,1008,1,No
26,29,81,6,13,11,3,3,0,0,2,8,13,1846,1,Yes
0,0,0,0,0,3,0,0,0,0,0,0,0,1869,0,No
5,11,12,70,3,7,52,24,34,23,4,12,18,1461,2,No
1,0,1,0,1,3,0,0,0,0,0,0,0,1869,0,No
2,2,5,0,2,3,0,0,0,0,0,0,0,1469,2,No
3,1,9,15,1,5,0,0,-15,0,1,2,2,1337,2,No
1,0,1,4,1,4,2,2,0,0,2,8,14,1869,0,No
0,0,0,0,0,3,0,0,0,0,0,0,0,1869,0,No
4,1,5,0,1,4,0,0,0,0,0,0,0,1469,0,No
0,0,0,0,0,4,0,0,0,0,0,0,0,1469,0,No
2,10,11,0,0,4,0,0,0,0,0,0,0,1263,1,No
0,0,0,0,0,3,0,0,0,0,0,0,0,1469,1,No
2,1,2,0,0,5,0,0,0,0,0,0,0,1263,0,No
0,1,0,0,0,4,0,0,0,0,0,0,0,1469,0,No
7,16,42,2,4,5,1,1,0,0,3,15,23,1469,4,No
2,2,11,0,1,3,0,0,0,0,0,0,0,1238,0,No
7,19,49,4,4,5,2,2,0,0,3,15,23,1469,5,No
10,0,10,0,0,1,0,0,0,0,0,0,0,634,0,No
1,0,4,0,0,0,0,0,0,0,0,0,0,0,0,No
2,1,4,0,1,5,0,0,0,0,0,0,0,1908,0,No
4,7,38,267,1,2,228,155,189,155,6,23,41,67,2,No
6,1,6,0,0,5,0,0,0,0,0,0,0,1908,0,No
7,4,7,5,0,7,3,3,1,1,3,15,23,1869,0,No
0,1,0,0,1,5,0,0,0,0,0,0,0,1869,1,No
8,14,15,0,3,8,0,0,0,0,0,0,0,1833,1,No
14,16,46,0,3,9,0,0,0,0,0,0,0,1848,5,No
1,3,5,0,2,2,0,0,0,0,0,0,0,629,4,No
3,4,4,0,0,4,0,0,0,0,0,0,0,1687,0,No
12,22,39,0,3,7,0,0,0,0,0,0,0,1630,4,No
6,5,18,0,2,8,0,0,0,0,0,0,0,1365,4,No
13,13,30,0,5,8,0,0,0,0,0,0,0,1425,1,No
16,20,50,38,4,10,29,25,20,20,4,16,27,1263,6,No
10,23,38,0,5,8,0,0,0,0,0,0,0,1846,4,No
19,26,55,22,8,10,12,12,2,2,3,15,23,1837,3,No
7,17,47,0,2,7,0,0,0,0,0,0,0,1865,1,No
7,7,22,0,1,1,0,0,0,0,0,0,0,311,5,No
19,30,66,34,7,9,29,25,24,24,4,16,27,1742,6,No
0,0,0,0,0,7,0,0,0,0,0,0,0,1908,0,No
1,0,1,0,0,4,0,0,0,0,0,0,0,1908,0,No
0,0,0,0,1,2,0,0,0,0,0,0,0,629,0,No
30,33,85,26,16,10,18,9,10,8,6,25,38,1875,1,Yes
7,11,10,0,0,2,0,0,0,0,0,0,0,734,0,No
11,6,12,0,2,6,0,0,0,0,0,0,0,1358,0,No
19,63,208,2,10,8,1,1,0,0,2,8,13,1836,8,Yes
2,2,2,0,0,4,0,0,0,0,0,0,0,1869,0,No
3,11,5,0,0,4,0,0,0,0,0,0,0,1833,0,No
5,11,36,0,0,6,0,0,0,0,0,0,0,1848,0,No
2,2,2,0,0,5,0,0,0,0,0,0,0,1869,0,No
3,3,3,0,1,5,0,0,0,0,0,0,0,1365,0,No
4,18,38,0,3,5,0,0,0,0,0,0,0,1424,0,No
7,12,23,0,0,5,0,0,0,0,0,0,0,1263,1,No
13,24,57,0,4,6,0,0,0,0,0,0,0,1846,0,No
7,39,77,80,6,7,41,41,2,2,3,15,23,1858,5,Yes
12,14,20,0,3,5,0,0,0,0,0,0,0,1860,0,No
1,2,1,0,0,0,0,0,0,0,0,0,0,0,0,No
5,10,29,0,0,1,0,0,0,0,0,0,0,398,0,No
3,3,3,0,0,1,0,0,0,0,0,0,0,311,0,No
7,33,67,0,3,8,0,0,0,0,0,0,0,1746,1,No
7,0,9,0,0,4,0,0,0,0,0,0,0,1875,0,No
17,30,74,51,13,11,28,28,5,5,3,15,23,1858,4,Yes
3,0,18,0,1,3,0,0,0,0,0,0,0,920,1,No
11,11,51,0,4,7,0,0,0,0,0,0,0,920,2,No
5,0,5,0,0,4,0,0,0,0,0,0,0,1844,1,No
2,2,4,0,0,4,0,0,0,0,0,0,0,1057,0,No
9,17,37,0,9,9,0,0,0,0,0,0,0,1684,5,No
1,8,10,0,2,4,0,0,0,0,0,0,0,1684,0,No
7,10,29,0,1,6,0,0,0,0,0,0,0,1908,1,No
1,1,4,0,0,1,0,0,0,0,0,0,0,602,0,No
8,7,8,0,1,4,0,0,0,0,0,0,0,920,0,No
13,10,15,0,1,5,0,0,0,0,0,0,0,919,0,No
2,4,2,0,0,5,0,0,0,0,0,0,0,1908,0,No
5,7,16,0,1,4,0,0,0,0,0,0,0,935,1,No
5,4,5,0,1,3,0,0,0,0,0,0,0,914,0,No
7,10,19,0,2,4,0,0,0,0,0,0,0,915,0,No
16,13,17,50,3,4,31,27,12,12,4,16,27,914,0,No
10,16,16,0,0,5,0,0,0,0,0,0,0,919,1,No
18,14,32,24,5,4,14,14,4,4,3,15,23,913,0,Yes
5,6,5,0,0,4,0,0,0,0,0,0,0,916,0,No
6,4,6,0,1,3,0,0,0,0,0,0,0,914,0,No
18,21,23,20,3,6,16,12,12,12,4,16,27,909,0,No
7,7,10,0,1,4,0,0,0,0,0,0,0,914,0,No
18,17,32,24,5,6,14,14,4,4,3,15,23,910,0,No
6,4,6,0,1,7,0,0,0,0,0,0,0,1908,0,No
6,5,16,0,1,3,0,0,0,0,0,0,0,907,0,No
2,1,2,0,1,6,0,0,0,0,0,0,0,1869,2,No
11,1,11,0,0,2,0,0,0,0,0,0,0,566,3,No
11,2,11,0,0,8,0,0,0,0,0,0,0,1344,3,No
0,0,0,0,1,3,0,0,0,0,0,0,0,1869,0,No
9,2,9,0,0,2,0,0,0,0,0,0,0,566,9,No
9,3,9,0,0,7,0,0,0,0,0,0,0,1344,0,No
1,1,1,0,1,6,0,0,0,0,0,0,0,1869,0,No
10,3,10,0,0,2,0,0,0,0,0,0,0,396,0,No
15,3,20,0,0,6,0,0,0,0,0,0,0,1361,0,No
8,28,54,0,2,3,0,0,0,0,0,0,0,396,4,No
14,22,66,0,1,4,0,0,0,0,0,0,0,396,3,No
18,18,99,0,1,3,0,0,0,0,0,0,0,396,23,No
6,16,55,0,3,7,0,0,0,0,0,0,0,1007,1,No
4,14,4,0,0,2,0,0,0,0,0,0,0,566,0,No
5,13,18,0,0,3,0,0,0,0,0,0,0,411,1,No
7,28,29,0,3,5,0,0,0,0,0,0,0,945,0,No
4,10,14,0,0,3,0,0,0,0,0,0,0,411,2,No
3,17,16,0,1,3,0,0,0,0,0,0,0,566,4,No
11,12,16,4,1,4,2,2,0,0,3,15,23,396,0,No
10,13,18,12,1,2,5,5,-2,0,1,1,2,396,2,No
3,18,31,0,3,7,0,0,0,0,0,0,0,1007,1,No
11,12,16,0,0,2,0,0,0,0,0,0,0,396,0,No
9,11,22,11,1,3,4,4,-3,0,1,1,2,396,2,No
3,0,3,0,0,3,0,0,0,0,0,0,0,1908,0,No
36,62,191,0,6,6,0,0,0,0,0,0,0,1836,8,No
1,0,16,0,0,1,0,0,0,0,0,0,0,390,0,No
1,0,10,0,0,1,0,0,0,0,0,0,0,390,1,No
12,1,47,0,0,8,0,0,0,0,0,0,0,1403,7,No
5,4,60,0,4,8,0,0,0,0,0,0,0,1292,5,Yes
3,0,38,0,0,2,0,0,0,0,0,0,0,845,9,No
13,1,16,0,2,1,0,0,0,0,0,0,0,879,0,Yes
7,4,22,0,1,4,0,0,0,0,0,0,0,1057,3,No
8,2,19,0,0,5,0,0,0,0,0,0,0,1607,1,No
1,0,2,0,0,4,0,0,0,0,0,0,0,1908,0,No
1,0,9,0,0,2,0,0,0,0,0,0,0,390,3,No
2,0,6,0,0,2,0,0,0,0,0,0,0,390,3,No
0,0,0,0,0,5,0,0,0,0,0,0,0,1869,0,No
10,35,133,0,9,7,0,0,0,0,0,0,0,1243,16,Yes
2,0,4,0,1,2,0,0,0,0,0,0,0,390,0,No
8,0,10,0,0,1,0,0,0,0,0,0,0,357,0,No
4,0,4,0,0,6,0,0,0,0,0,0,0,1869,1,No
4,0,6,0,0,1,0,0,0,0,0,0,0,357,2,No
1,0,9,0,1,2,0,0,0,0,0,0,0,390,0,No
1,1,7,0,1,1,0,0,0,0,0,0,0,271,0,No
9,13,33,0,0,5,0,0,0,0,0,0,0,1469,2,No
1,0,5,0,1,1,0,0,0,0,0,0,0,852,0,No
9,0,10,0,0,2,0,0,0,0,0,0,0,357,0,No
2,0,4,0,0,4,0,0,0,0,0,0,0,1908,0,No
2,0,2,0,0,5,0,0,0,0,0,0,0,1869,0,No
9,7,44,0,4,5,0,0,0,0,0,0,0,1566,10,No
14,0,18,0,1,5,0,0,0,0,0,0,0,1292,0,No
2,0,6,0,0,4,0,0,0,0,0,0,0,1292,1,No
3,2,4,0,1,5,0,0,0,0,0,0,0,1524,3,No
9,3,9,0,2,5,0,0,0,0,0,0,0,986,0,No
0,0,0,0,1,6,0,0,0,0,0,0,0,1869,0,No
0,1,0,0,1,5,0,0,0,0,0,0,0,1469,0,No
3,0,3,0,1,6,0,0,0,0,0,0,0,1869,0,No
8,1,8,0,2,4,0,0,0,0,0,0,0,1358,0,No
1,7,3,0,2,4,0,0,0,0,0,0,0,924,1,No
0,0,0,0,0,3,0,0,0,0,0,0,0,1869,0,No
5,9,5,0,0,4,0,0,0,0,0,0,0,986,0,No
12,11,12,0,1,4,0,0,0,0,0,0,0,986,0,No
4,7,4,0,0,3,0,0,0,0,0,0,0,986,0,No
19,9,19,0,1,9,0,0,0,0,0,0,0,1376,0,Yes
18,13,25,0,6,8,0,0,0,0,0,0,0,1393,0,Yes
12,7,12,0,1,8,0,0,0,0,0,0,0,1393,1,Yes
3,1,8,0,0,1,0,0,0,0,0,0,0,620,3,No
37,22,115,58,8,9,30,24,2,2,6,24,37,1382,11,Yes
3,2,6,0,1,7,0,0,0,0,0,0,0,1382,3,No
1,1,1,0,0,3,0,0,0,0,0,0,0,1469,0,No
14,3,16,0,0,5,0,0,0,0,0,0,0,1370,2,No
17,2,26,0,0,5,0,0,0,0,0,0,0,1370,1,No
1,0,1,0,0,3,0,0,0,0,0,0,0,1469,0,No
4,0,4,0,0,3,0,0,0,0,0,0,0,1469,0,No
21,4,24,0,0,5,0,0,0,0,0,0,0,1370,2,No
22,7,38,0,1,5,0,0,0,0,0,0,0,1370,1,No
2,0,2,0,1,5,0,0,0,0,0,0,0,1908,1,No
1,1,1,0,1,4,0,0,0,0,0,0,0,1469,0,No
1,4,2,0,0,6,0,0,0,0,0,0,0,1382,1,No
1,2,2,0,1,4,0,0,0,0,0,0,0,1382,0,No
1,3,1,0,0,3,0,0,0,0,0,0,0,1382,0,No
1,5,2,0,0,5,0,0,0,0,0,0,0,1382,0,No
1,3,2,0,0,3,0,0,0,0,0,0,0,1382,0,Yes
1,0,1,0,0,3,0,0,0,0,0,0,0,1469,1,No
1,0,1,0,0,3,0,0,0,0,0,0,0,1469,1,No
1,5,3,11,1,5,7,7,3,3,2,8,13,1382,0,Yes
0,0,0,0,1,5,0,0,0,0,0,0,0,1869,1,No
3,0,3,0,1,1,0,0,0,0,0,0,0,391,0,No
4,1,7,0,1,1,0,0,0,0,0,0,0,391,3,No
3,3,3,0,1,1,0,0,0,0,0,0,0,391,3,No
6,0,6,0,0,1,0,0,0,0,0,0,0,391,6,No
2,0,2,0,0,1,0,0,0,0,0,0,0,391,3,No
2,0,5,0,0,1,0,0,0,0,0,0,0,391,1,No
2,0,6,0,0,2,0,0,0,0,0,0,0,391,1,No
2,0,2,0,0,1,0,0,0,0,0,0,0,391,1,No
1,0,1,0,0,1,0,0,0,0,0,0,0,391,1,No
0,0,0,0,0,1,0,0,0,0,0,0,0,391,1,No
0,0,0,0,0,1,0,0,0,0,0,0,0,300,1,No
0,0,0,0,0,1,0,0,0,0,0,0,0,300,1,No
0,0,0,0,0,1,0,0,0,0,0,0,0,391,1,No
0,0,0,0,0,2,0,0,0,0,0,0,0,300,1,No
0,0,0,0,0,1,0,0,0,0,0,0,0,391,1,No
0,0,0,0,0,3,0,0,0,0,0,0,0,391,1,No
1,6,12,0,1,3,0,0,0,0,0,0,0,391,5,No
1,11,23,0,1,2,0,0,0,0,0,0,0,391,32,No
2,5,8,0,0,2,0,0,0,0,0,0,0,391,8,No
3,1,16,0,0,3,0,0,0,0,0,0,0,390,8,No
7,0,16,0,0,2,0,0,0,0,0,0,0,391,4,No
7,0,16,0,0,1,0,0,0,0,0,0,0,391,11,No
6,0,7,0,0,1,0,0,0,0,0,0,0,353,1,No
2,2,4,0,0,1,0,0,0,0,0,0,0,391,3,No
9,0,29,0,0,3,0,0,0,0,0,0,0,360,2,No
1,0,2,0,0,1,0,0,0,0,0,0,0,391,1,No
1,0,2,0,0,1,0,0,0,0,0,0,0,391,0,No
4,0,13,0,0,1,0,0,0,0,0,0,0,391,1,No
4,2,23,0,0,1,0,0,0,0,0,0,0,391,1,No
5,2,16,0,0,3,0,0,0,0,0,0,0,391,2,No
