@relation dataset_C-weka.filters.unsupervised.attribute.Remove-R1-3

@attribute NOM numeric
@attribute FanOut numeric
@attribute CyclomaticComplexity numeric
@attribute LOCTouched numeric
@attribute NFix numeric
@attribute NAuth numeric
@attribute LOCAdded numeric
@attribute MaxLOCAdded numeric
@attribute Churn numeric
@attribute MaxChurn numeric
@attribute NS numeric
@attribute ND numeric
@attribute ChangeSetSize numeric
@attribute Age numeric
@attribute NSmells numeric
@attribute Bugginess {No,Yes}

@data
0,1,0,128,0,3,80,21,32,21,52,394,2743,383,0,No
0,0,0,112,0,3,70,21,28,21,47,340,2315,383,0,No
3,0,3,239,0,3,142,35,45,35,57,376,2424,822,0,No
1,0,2,245,0,4,139,35,33,35,65,405,2471,822,0,No
2,0,2,127,0,4,101,74,75,74,42,330,2613,198,0,No
35,1,42,419,0,4,335,149,251,149,48,404,2865,738,0,No
11,1,12,141,0,3,114,71,87,71,41,394,2843,738,0,No
21,0,32,311,0,3,227,58,143,58,60,476,3009,758,0,No
13,0,17,168,0,4,133,52,98,52,45,407,2865,738,0,No
2,1,2,176,0,3,111,34,46,34,47,385,2461,383,0,No
1,0,1,100,0,3,66,44,32,44,36,319,2339,177,0,No
12,1,14,110,0,1,106,98,102,98,17,161,1304,152,0,No
10,3,10,156,0,3,134,109,112,109,33,299,2284,177,0,No
7,1,11,123,0,3,104,70,85,70,34,329,2608,669,0,No
3,1,3,243,0,3,142,35,41,35,56,404,2439,822,0,No
16,0,20,744,0,3,442,104,140,104,96,578,3179,789,0,No
10,1,14,213,0,3,149,77,85,77,42,396,2800,660,0,No
2,2,2,273,0,3,161,35,49,35,72,521,3060,822,0,No
4,1,4,220,0,3,133,35,46,35,57,411,2514,822,0,No
12,2,12,189,0,3,140,82,91,82,41,349,2440,760,0,No
19,3,25,317,0,3,234,70,151,70,70,486,2954,762,0,No
5,1,7,109,0,3,91,62,73,62,34,322,2599,198,0,No
4,1,4,168,0,3,106,61,44,61,42,333,2315,779,0,No
4,2,4,227,0,3,137,35,47,35,56,410,2464,822,0,No
24,4,27,183,0,4,168,104,153,104,37,331,2332,279,0,No
14,1,15,129,0,3,117,100,105,100,28,290,2276,272,0,No
2,2,2,273,0,3,161,35,49,35,72,521,3060,822,0,No
5,2,5,287,0,3,170,35,53,35,67,469,2623,822,0,No
8,2,8,155,0,4,140,121,125,121,28,265,2172,174,0,No
14,2,14,228,0,3,163,106,98,106,52,433,2900,660,0,No
3,1,3,114,0,3,77,21,40,21,40,326,2305,383,0,No
24,2,32,225,0,3,197,97,169,97,44,373,2750,177,0,No
36,4,36,371,0,3,303,58,235,58,84,571,3168,758,0,No
25,0,31,335,0,3,256,81,177,81,69,487,3033,751,0,No
8,0,12,290,0,3,182,35,74,35,72,500,3005,822,0,No
14,2,14,391,0,3,253,149,115,149,43,373,2421,767,0,No
20,2,21,420,0,4,277,67,134,67,102,605,3146,822,0,No
2,2,2,273,0,3,161,35,49,35,72,521,3060,822,0,No
16,0,16,226,0,3,165,86,104,86,53,388,2446,383,0,No
2,0,2,192,0,3,113,77,34,77,37,342,2372,660,0,No
12,1,16,287,0,3,194,106,101,106,46,349,2385,660,0,No
10,3,13,112,0,3,98,69,84,69,32,297,2279,269,0,No
2,1,2,220,0,3,127,35,34,35,59,396,2455,822,0,No
4,1,4,124,0,3,85,34,46,34,35,320,2272,383,0,No
20,2,21,159,0,3,146,92,133,92,30,284,2223,285,0,No
10,11,52,667,0,5,533,353,399,353,53,388,2764,265,0,No
7,1,13,144,0,3,120,72,96,72,33,328,2615,767,0,No
8,1,8,131,0,3,103,59,75,59,32,299,2259,767,0,No
20,1,24,307,0,3,241,131,175,124,57,460,2707,783,0,No
0,0,0,105,0,3,66,15,27,14,38,335,2388,783,0,No
5,3,9,112,0,1,105,98,98,98,12,102,808,136,0,No
0,0,0,109,0,3,70,15,31,14,45,363,2466,783,0,No
1,0,1,147,0,3,92,17,37,16,48,352,2409,783,0,No
0,0,0,133,0,3,84,14,35,14,47,362,2456,783,0,No
48,1,52,403,0,4,378,267,353,267,43,355,2393,352,0,No
1,0,1,139,0,3,94,15,49,14,51,415,2577,783,0,No
0,0,0,98,0,3,62,15,26,14,36,324,2363,783,0,No
0,0,0,100,0,3,63,15,26,14,44,402,2871,783,0,No
1,0,2,130,0,3,86,14,42,14,54,387,2477,783,0,No
0,0,0,124,0,3,76,14,28,14,39,344,2418,783,0,No
0,0,0,114,0,3,71,14,28,14,39,344,2418,783,0,No
4,1,6,228,0,4,145,29,62,24,63,501,3082,783,0,No
2,0,9,95,0,3,80,60,65,60,31,294,2223,185,0,No
1,0,1,123,0,3,79,14,35,14,47,408,2583,783,0,No
0,0,0,120,0,3,80,17,40,16,46,349,2406,783,0,No
0,0,0,109,0,3,68,21,27,21,47,358,2348,383,0,No
0,0,0,95,0,3,62,21,29,21,39,314,2267,383,0,No
0,0,0,105,0,3,62,14,19,14,36,324,2363,783,0,No
6,12,16,886,0,4,530,75,174,68,78,583,3407,783,0,No
11,1,13,262,0,5,187,42,112,42,48,401,2696,783,0,No
0,0,0,348,0,3,221,29,94,15,77,558,3409,783,0,No
7,2,16,235,0,2,200,157,165,157,21,172,1328,164,0,No
2,0,2,153,0,3,98,34,43,34,38,336,2321,383,0,No
2,0,3,226,0,3,133,35,40,35,52,383,2466,822,0,No
2,0,7,138,0,3,102,52,66,52,38,345,2685,502,0,No
2,2,5,127,0,3,102,75,77,75,35,340,2699,500,0,No
4,3,8,153,0,3,124,91,95,91,37,355,2726,275,0,No
2,0,8,300,0,3,201,128,102,128,33,328,2662,611,0,No
1,1,1,154,0,3,104,14,54,14,56,471,3232,783,0,No
2,7,4,170,0,3,130,98,90,98,32,321,2637,177,0,No
0,0,0,101,0,3,71,15,41,14,45,405,2910,783,0,No
0,0,0,112,0,3,72,21,32,21,51,393,2784,383,0,No
0,0,0,71,0,3,52,16,33,16,29,280,2268,783,0,No
0,3,0,133,0,4,101,67,69,67,39,369,2802,272,0,No
0,2,0,165,0,3,105,47,45,47,40,338,2499,452,0,No
3,2,3,102,0,1,86,76,70,76,23,187,1394,164,0,No
1,2,1,543,0,4,301,167,59,167,62,475,3159,382,0,No
2,6,3,512,0,3,312,132,112,132,69,493,3128,382,0,No
11,9,16,2208,0,4,1208,151,208,133,110,688,3855,783,0,No
2,3,2,142,0,3,102,47,62,47,36,338,2724,452,0,No
0,3,0,158,0,3,120,81,82,81,32,321,2637,177,0,No
8,7,12,442,0,3,309,159,176,159,47,393,2859,450,0,No
1,0,1,159,0,3,98,15,37,14,49,397,2537,783,0,No
16,14,61,1537,0,5,1032,532,527,532,51,381,2778,177,0,No
1,5,2,521,0,3,314,190,107,190,55,457,3092,279,0,No
9,9,15,677,0,3,431,224,185,224,56,447,3061,450,0,No
3,3,3,96,0,4,72,43,48,43,37,356,2760,282,0,No
5,2,5,644,0,5,358,73,72,68,81,532,2942,731,0,No
1,2,2,116,0,4,83,54,50,54,33,328,2658,579,0,No
7,6,9,710,0,5,395,73,80,68,81,532,2942,731,0,No
7,3,7,210,0,4,141,77,72,77,35,350,2733,272,0,No
5,6,32,519,0,5,355,141,191,57,51,437,2967,339,0,No
10,4,11,213,0,3,162,116,111,116,27,197,1464,164,0,No
5,3,7,404,0,5,238,120,72,120,47,377,2896,752,0,No
5,4,7,448,0,5,276,120,104,120,47,405,2990,752,0,No
18,6,30,2584,0,5,1445,241,306,216,90,552,3286,822,0,No
16,8,23,863,0,5,528,147,193,147,88,588,3400,647,0,No
6,4,6,132,0,5,96,55,60,55,37,345,2755,265,0,No
13,7,21,1295,0,5,731,123,167,111,93,597,3432,773,0,Yes
2,3,2,169,0,4,104,54,39,54,37,364,2784,579,0,No
4,0,4,58,0,1,53,50,48,50,19,165,1300,164,0,No
2,0,2,98,0,3,74,50,50,50,37,348,2706,502,0,No
1,1,2,92,0,3,74,53,56,53,33,344,2704,272,0,No
1,1,2,136,0,3,92,53,48,53,36,358,2731,272,0,No
1,0,1,154,0,3,98,17,42,16,43,394,2866,783,0,No
14,2,33,626,0,3,440,264,254,264,38,350,2726,191,0,No
3,0,3,95,0,3,81,58,67,58,37,344,2729,541,0,No
1,0,1,335,0,3,193,56,51,56,56,464,3092,731,0,No
2,1,2,189,0,3,128,54,67,54,37,364,2795,339,0,No
2,0,3,318,0,3,191,56,64,56,55,460,3092,731,0,No
4,0,7,429,0,3,258,64,87,64,57,473,3140,731,0,No
1,0,1,140,0,3,93,21,46,16,45,403,2924,783,0,No
0,0,0,125,0,3,82,16,39,16,38,340,2438,783,0,No
8,0,14,310,0,4,239,133,168,133,45,386,2843,339,0,No
25,0,35,221,0,1,218,211,215,211,17,161,1304,152,0,No
12,0,20,164,0,1,161,159,158,159,17,167,1269,144,0,No
1,4,9,150,0,3,116,74,82,74,39,364,2676,185,0,No
13,3,18,424,0,5,260,77,96,77,73,606,3279,776,0,No
2,0,2,112,0,3,70,14,28,14,41,358,2499,783,0,No
25,0,42,772,0,4,470,61,168,61,103,785,3701,776,0,No
6,3,12,630,0,4,359,177,88,177,79,593,3359,796,0,No
8,0,12,125,0,4,109,84,93,84,33,332,2639,177,0,No
8,0,10,488,0,4,278,102,68,92,76,559,2838,457,0,No
0,1,0,438,0,4,239,89,40,89,78,633,3335,776,0,No
4,1,4,417,0,3,236,58,55,58,68,533,2865,811,0,No
23,5,31,286,0,4,242,143,198,143,63,469,3016,279,0,No
16,1,17,168,0,4,156,114,144,114,33,307,2298,272,0,No
0,1,0,432,0,3,236,89,40,89,77,624,3322,776,0,No
6,4,6,255,0,3,165,100,75,100,82,568,3196,352,0,No
14,5,14,429,0,4,284,191,139,191,98,714,3475,660,0,No
6,1,8,110,0,3,92,69,74,69,31,286,2222,177,0,No
5,2,7,147,0,3,106,69,65,69,33,333,2643,177,0,No
4,1,4,79,0,3,65,44,51,44,35,332,2363,383,0,No
15,2,15,509,0,3,333,149,157,149,68,566,2793,767,0,No
0,1,0,432,0,3,236,89,40,89,71,594,3235,776,0,No
4,0,4,206,0,3,129,35,52,35,56,387,2466,822,0,No
6,2,6,467,0,3,268,58,69,58,75,573,2938,811,0,No
5,0,10,466,0,3,270,191,74,191,64,564,3096,660,0,No
4,0,4,344,0,3,204,133,64,133,72,542,3062,660,0,No
8,4,11,143,0,3,117,88,91,88,54,412,2860,269,0,No
11,4,19,371,0,4,255,91,139,91,73,618,3308,776,0,No
5,3,7,148,0,4,112,49,76,49,49,409,2559,618,0,No
3,2,4,249,0,4,153,35,57,35,55,414,2602,822,0,No
4,3,6,136,0,4,99,53,62,53,43,393,2889,776,0,No
0,1,0,383,0,3,207,93,31,93,55,442,2683,776,0,No
0,1,0,478,0,3,253,89,28,89,63,528,2777,776,0,No
5,3,7,162,0,4,116,53,70,53,42,394,2883,776,0,No
0,1,0,493,0,3,262,89,31,89,72,542,2887,776,0,No
0,0,0,120,0,3,70,14,20,14,59,435,2924,783,0,No
11,4,19,376,0,4,256,91,136,91,73,618,3308,776,0,No
5,3,7,150,0,4,111,49,72,49,49,409,2559,618,0,No
3,2,4,241,0,4,149,35,57,35,53,402,2574,822,0,No
4,3,6,123,0,4,93,53,63,53,40,369,2814,776,0,No
0,1,0,343,0,3,186,93,29,93,53,429,2654,776,0,No
0,1,0,406,0,3,217,89,28,89,59,502,2724,776,0,No
5,3,7,149,0,4,109,53,69,53,39,370,2808,776,0,No
0,1,0,421,0,3,226,89,31,89,68,516,2834,776,0,No
39,11,72,1072,0,4,746,164,420,164,105,805,3669,776,0,No
11,4,19,401,0,4,279,91,157,91,78,642,3373,776,0,No
5,3,7,148,0,4,110,49,72,49,49,409,2559,618,0,No
3,2,4,265,0,4,161,35,57,35,57,433,2643,822,0,No
4,3,6,125,0,4,94,53,63,53,48,425,2990,776,0,No
0,2,0,343,0,3,187,89,31,89,58,467,2764,776,0,No
0,2,0,434,0,3,233,89,32,89,63,532,2810,776,0,No
5,3,8,206,0,5,139,53,72,53,47,429,2951,776,0,No
0,2,0,446,0,3,239,89,32,89,68,525,2856,776,0,No
5,2,5,194,0,3,115,35,36,35,56,458,3080,822,0,No
5,2,5,214,0,3,125,35,36,35,65,506,3195,822,0,No
5,2,5,198,0,3,117,35,36,35,64,504,3154,822,0,No
4,2,4,218,0,3,126,35,34,35,70,527,3150,822,0,No
4,1,4,104,0,3,68,15,32,14,49,418,2883,783,0,No
5,2,5,196,0,3,116,35,36,35,56,458,3080,822,0,No
5,4,5,192,0,3,115,35,38,35,62,491,3161,822,0,No
6,3,6,177,0,3,108,35,39,35,62,496,3074,822,0,No
5,3,5,237,0,3,137,35,37,35,77,567,3223,822,0,No
5,4,5,168,0,3,103,35,38,35,53,441,2964,822,0,No
1,0,1,97,0,3,65,14,33,14,33,323,2364,783,0,No
4,2,4,122,0,3,78,21,34,21,46,380,2714,383,0,No
8,5,8,151,0,3,98,14,45,14,53,474,3022,783,0,No
7,2,7,234,0,3,137,35,40,35,73,547,3205,822,0,No
7,3,7,237,0,3,139,35,41,35,79,573,3295,822,0,No
8,4,8,242,0,3,143,35,44,35,79,596,3269,822,0,No
5,4,5,238,0,3,138,35,38,35,76,545,3173,822,0,No
12,5,12,277,0,3,165,35,53,35,78,595,3358,822,0,No
8,3,8,231,0,3,137,35,43,35,65,506,3116,822,0,No
13,5,13,232,0,3,144,35,56,35,94,679,3485,822,0,No
4,2,4,132,0,3,83,21,34,21,50,396,2736,383,0,No
4,2,4,295,0,5,177,35,59,35,81,602,3395,822,0,No
5,2,5,210,0,3,123,35,36,35,60,477,3137,822,0,No
5,4,5,202,0,3,120,35,38,35,62,491,3161,822,0,No
8,2,12,322,0,3,207,35,92,35,84,553,3151,822,0,No
5,2,7,440,0,3,253,58,66,58,64,514,3237,811,0,No
5,2,7,528,0,3,298,58,68,58,74,561,3326,811,0,No
4,5,9,376,0,3,232,58,88,58,72,554,3132,811,0,No
5,2,7,383,0,3,226,58,69,58,61,501,3189,811,0,No
5,6,8,416,0,3,259,58,102,58,71,568,3321,811,0,No
6,5,9,368,0,3,227,58,86,58,72,586,3301,811,0,No
5,4,8,110,0,3,89,52,68,52,36,348,2651,185,0,No
5,6,8,194,0,3,142,60,90,60,47,422,2858,746,0,No
4,3,4,92,0,3,72,50,52,50,31,320,2597,279,0,No
8,6,14,216,0,3,151,75,86,75,51,439,2901,352,0,No
7,3,10,133,0,3,109,79,85,79,34,339,2645,177,0,No
8,4,12,158,0,3,129,74,100,74,38,354,2723,177,0,No
5,6,8,898,0,3,496,145,94,125,113,808,3812,811,0,No
13,8,23,586,0,4,388,58,190,58,88,660,3517,811,0,No
9,7,14,449,0,3,285,58,121,58,74,569,3296,811,0,No
4,3,4,120,0,3,88,50,56,50,35,336,2619,279,0,No
5,2,7,569,0,3,319,58,69,58,78,580,3383,811,0,No
5,6,8,961,0,3,531,145,101,125,108,766,3751,811,0,No
3,3,16,619,0,3,369,149,119,149,66,520,3120,793,0,No
1,2,2,223,0,3,131,35,39,35,58,454,3004,822,0,No
1,3,6,230,0,4,142,35,54,35,65,485,3053,822,0,No
1,2,2,161,0,3,102,47,43,47,47,434,2988,793,0,No
0,1,0,191,0,3,112,35,33,35,57,452,3006,822,0,No
0,0,0,124,0,3,77,35,30,35,40,337,2347,822,0,No
1,1,1,523,0,3,275,149,27,149,51,461,3014,793,0,No
0,0,0,72,0,3,56,38,40,38,31,331,2640,618,0,No
0,0,0,72,0,3,56,38,40,38,31,331,2640,618,0,No
0,0,0,78,0,3,59,38,40,38,35,360,2707,618,0,No
1,0,2,127,0,3,96,68,65,68,42,383,2746,618,0,No
0,0,0,84,0,3,62,38,40,38,38,384,2765,618,0,No
4,1,7,170,0,3,131,57,92,57,46,410,2830,618,0,No
0,0,0,78,0,3,59,37,40,37,35,345,2659,383,0,No
0,0,0,78,0,3,59,38,40,38,34,347,2667,618,0,No
0,0,0,70,0,3,55,37,40,37,33,333,2640,383,0,No
0,0,0,82,0,3,61,37,40,37,38,359,2702,383,0,No
0,0,0,70,0,3,55,37,40,37,33,333,2640,383,0,No
0,0,0,72,0,3,56,38,40,38,31,331,2640,618,0,No
0,0,0,84,0,3,62,38,40,38,38,375,2732,618,0,No
0,0,0,76,0,3,58,37,40,37,35,339,2647,383,0,No
0,0,0,84,0,3,62,38,40,38,41,390,2769,618,0,No
0,0,0,76,0,3,58,38,40,38,34,357,2713,618,0,No
0,0,0,130,0,3,81,15,32,14,41,359,2428,783,0,No
12,2,58,502,0,3,359,243,216,243,39,382,2782,339,0,No
0,0,0,122,0,3,77,15,32,14,38,337,2376,783,0,No
0,0,0,120,0,3,76,15,32,14,38,337,2376,783,0,No
12,1,32,668,0,4,475,126,282,126,85,584,3186,737,0,Yes
1,0,1,211,0,3,131,35,51,35,61,453,2946,822,0,No
0,0,0,120,0,3,70,14,20,14,59,435,2924,783,0,No
5,3,6,213,0,3,145,50,77,45,55,432,2878,383,0,No
0,0,0,158,0,3,95,21,32,21,48,365,2369,383,0,No
2,1,2,103,0,4,75,44,47,44,42,374,2760,177,0,No
0,1,0,138,0,3,85,21,32,21,56,416,2837,383,0,No
1,1,10,86,0,1,82,79,78,79,17,161,1304,152,0,No
2,7,3,176,0,3,121,44,66,44,43,391,2752,601,0,No
5,9,9,564,0,4,354,80,144,80,79,585,3366,774,0,No
0,0,0,98,0,3,64,14,30,14,37,334,2371,783,0,No
8,21,20,2463,0,5,1373,319,283,319,132,842,3840,760,0,No
8,13,27,747,0,4,497,164,247,164,75,540,3224,751,0,No
5,9,9,978,0,4,561,70,144,65,112,786,3773,779,0,No
1,0,1,232,0,3,136,35,40,35,53,399,2458,822,0,No
9,12,16,389,0,5,305,165,221,165,42,369,2784,269,0,No
5,9,9,334,0,5,239,123,144,123,46,375,2828,457,0,No
3,7,3,150,0,3,117,65,84,65,35,350,2724,272,0,No
2,2,2,139,0,3,92,43,45,43,47,400,2817,747,0,No
3,9,22,927,0,4,554,214,181,214,98,619,3243,762,0,No
4,7,7,418,0,3,254,85,90,85,64,475,2965,774,0,No
3,2,3,103,0,4,81,58,59,58,34,333,2612,279,0,No
4,10,9,727,0,3,421,87,115,80,91,644,3345,774,0,No
8,0,10,160,0,3,132,101,104,101,40,353,2671,789,0,No
6,7,10,187,0,4,147,98,107,98,42,380,2787,269,0,No
0,0,0,120,0,3,70,14,20,14,59,435,2924,783,0,No
3,6,9,209,0,3,149,90,89,90,52,441,2886,598,0,No
2,0,2,248,0,3,145,35,42,35,60,488,2987,822,0,No
3,3,18,261,0,5,204,87,147,87,41,351,2643,317,0,No
2,0,8,144,0,3,111,83,78,83,33,321,2594,185,0,No
4,10,20,167,0,3,144,85,121,85,35,338,2383,383,0,No
14,0,18,182,0,4,144,107,106,107,34,325,2601,206,0,No
12,6,12,242,0,4,176,95,110,95,49,445,2914,290,0,No
0,0,0,86,0,3,64,21,42,21,36,307,2285,383,0,No
9,1,9,151,0,3,120,70,89,70,36,362,2729,272,0,No
2,3,2,119,0,3,90,60,61,60,43,392,2743,296,0,No
1,1,1,95,0,4,63,21,31,21,43,369,2691,383,0,No
1,3,1,85,0,4,63,38,41,38,39,366,2688,296,0,No
1,2,2,83,0,4,62,36,41,36,40,361,2678,296,0,No
1,2,1,85,0,3,61,34,37,34,35,335,2630,296,0,No
1,1,1,97,0,3,66,21,35,21,40,324,2289,383,0,No
1,0,1,106,0,3,66,21,26,21,40,324,2286,383,0,No
4,0,4,113,0,3,79,21,45,21,38,316,2269,383,0,No
13,4,16,178,0,3,155,131,132,131,30,318,2597,284,0,No
1,4,1,104,0,4,73,44,42,44,43,402,2814,296,0,No
0,0,0,120,0,3,70,14,20,14,59,435,2924,783,0,No
1,0,16,293,0,3,212,77,131,77,41,332,2611,201,0,No
0,1,0,0,0,3,0,0,0,0,0,0,0,406,0,No
0,0,0,0,0,3,0,0,0,0,0,0,0,406,0,No
3,0,3,0,0,3,0,0,0,0,0,0,0,845,0,No
1,0,2,0,0,4,0,0,0,0,0,0,0,845,0,No
2,0,2,0,0,4,0,0,0,0,0,0,0,221,0,No
35,1,42,0,0,4,0,0,0,0,0,0,0,761,0,No
11,1,12,0,0,3,0,0,0,0,0,0,0,761,0,No
21,0,32,0,0,3,0,0,0,0,0,0,0,781,0,No
13,0,17,0,0,4,0,0,0,0,0,0,0,761,0,No
2,1,2,0,0,3,0,0,0,0,0,0,0,406,0,No
1,0,1,0,0,3,0,0,0,0,0,0,0,200,0,No
12,1,14,0,0,1,0,0,0,0,0,0,0,175,0,No
10,3,10,0,0,3,0,0,0,0,0,0,0,200,0,No
7,1,11,0,0,3,0,0,0,0,0,0,0,692,0,No
3,1,3,0,0,3,0,0,0,0,0,0,0,845,0,No
16,0,20,0,0,3,0,0,0,0,0,0,0,812,0,No
10,1,14,0,0,3,0,0,0,0,0,0,0,683,0,No
2,2,2,0,0,3,0,0,0,0,0,0,0,845,0,No
4,1,4,0,0,3,0,0,0,0,0,0,0,845,0,No
12,2,12,0,0,3,0,0,0,0,0,0,0,783,0,No
19,3,25,0,0,3,0,0,0,0,0,0,0,785,0,No
5,1,7,0,0,3,0,0,0,0,0,0,0,221,0,No
4,1,4,0,0,3,0,0,0,0,0,0,0,802,0,No
4,2,4,0,0,3,0,0,0,0,0,0,0,845,0,No
24,4,27,0,0,4,0,0,0,0,0,0,0,302,0,No
16,1,17,0,0,3,0,0,0,0,0,0,0,295,0,No
2,2,2,0,0,3,0,0,0,0,0,0,0,845,0,No
5,2,5,0,0,3,0,0,0,0,0,0,0,845,0,No
8,2,8,0,0,4,0,0,0,0,0,0,0,197,0,No
14,2,14,0,0,3,0,0,0,0,0,0,0,683,0,No
3,1,3,0,0,3,0,0,0,0,0,0,0,406,0,No
24,2,32,0,0,3,0,0,0,0,0,0,0,200,0,No
36,4,36,0,0,3,0,0,0,0,0,0,0,781,0,No
25,0,31,0,0,3,0,0,0,0,0,0,0,774,0,No
8,0,12,0,0,3,0,0,0,0,0,0,0,845,0,No
14,2,14,0,0,3,0,0,0,0,0,0,0,790,0,No
20,2,21,0,0,4,0,0,0,0,0,0,0,845,0,No
2,2,2,0,0,3,0,0,0,0,0,0,0,845,0,No
16,0,16,0,0,3,0,0,0,0,0,0,0,406,0,No
2,0,2,0,0,3,0,0,0,0,0,0,0,683,0,No
12,1,16,0,0,3,0,0,0,0,0,0,0,683,0,No
10,3,13,0,0,3,0,0,0,0,0,0,0,292,0,No
2,1,2,0,0,3,0,0,0,0,0,0,0,845,0,No
4,1,4,0,0,3,0,0,0,0,0,0,0,406,0,No
20,2,21,0,0,3,0,0,0,0,0,0,0,308,0,No
10,11,52,0,0,5,0,0,0,0,0,0,0,288,0,No
7,1,13,0,0,3,0,0,0,0,0,0,0,790,0,No
8,1,8,0,0,3,0,0,0,0,0,0,0,790,0,No
20,1,24,0,0,3,0,0,0,0,0,0,0,806,0,No
0,0,0,0,0,3,0,0,0,0,0,0,0,806,0,No
5,3,9,0,0,1,0,0,0,0,0,0,0,159,0,No
0,0,0,0,0,3,0,0,0,0,0,0,0,806,0,No
1,0,1,0,0,3,0,0,0,0,0,0,0,806,0,No
0,0,0,0,0,3,0,0,0,0,0,0,0,806,0,No
48,1,52,0,0,4,0,0,0,0,0,0,0,375,0,No
1,0,1,0,0,3,0,0,0,0,0,0,0,806,0,No
0,0,0,0,0,3,0,0,0,0,0,0,0,806,0,No
0,0,0,0,0,3,0,0,0,0,0,0,0,806,0,No
1,0,2,0,0,3,0,0,0,0,0,0,0,806,0,No
0,0,0,0,0,3,0,0,0,0,0,0,0,806,0,No
0,0,0,0,0,3,0,0,0,0,0,0,0,806,0,No
4,1,6,0,0,4,0,0,0,0,0,0,0,806,0,No
2,0,9,0,0,3,0,0,0,0,0,0,0,208,0,No
1,0,1,0,0,3,0,0,0,0,0,0,0,806,0,No
0,0,0,0,0,3,0,0,0,0,0,0,0,806,0,No
0,0,0,0,0,3,0,0,0,0,0,0,0,406,0,No
0,0,0,0,0,3,0,0,0,0,0,0,0,406,0,No
0,0,0,0,0,3,0,0,0,0,0,0,0,806,0,No
6,12,16,0,0,4,0,0,0,0,0,0,0,806,0,No
11,1,13,0,0,5,0,0,0,0,0,0,0,806,0,No
0,0,0,0,0,3,0,0,0,0,0,0,0,806,0,No
7,2,16,0,0,2,0,0,0,0,0,0,0,187,0,No
2,0,2,0,0,3,0,0,0,0,0,0,0,406,0,No
2,0,3,0,0,3,0,0,0,0,0,0,0,845,0,No
2,0,7,0,0,3,0,0,0,0,0,0,0,525,0,No
2,2,5,0,0,3,0,0,0,0,0,0,0,523,0,No
4,3,8,0,0,3,0,0,0,0,0,0,0,298,0,No
2,0,8,0,0,3,0,0,0,0,0,0,0,634,0,No
1,1,1,0,0,3,0,0,0,0,0,0,0,806,0,No
2,7,4,0,0,3,0,0,0,0,0,0,0,200,0,No
0,0,0,0,0,3,0,0,0,0,0,0,0,806,0,No
0,0,0,0,0,3,0,0,0,0,0,0,0,406,0,No
0,0,0,0,0,3,0,0,0,0,0,0,0,806,0,No
0,3,0,0,0,4,0,0,0,0,0,0,0,295,0,No
0,2,0,0,0,3,0,0,0,0,0,0,0,475,0,No
3,2,3,0,0,1,0,0,0,0,0,0,0,187,0,No
1,2,1,0,0,4,0,0,0,0,0,0,0,405,0,No
2,6,3,0,0,3,0,0,0,0,0,0,0,405,0,No
11,9,16,0,0,4,0,0,0,0,0,0,0,806,0,No
2,3,2,0,0,3,0,0,0,0,0,0,0,475,0,No
0,3,0,0,0,3,0,0,0,0,0,0,0,200,0,No
8,7,12,0,0,3,0,0,0,0,0,0,0,473,0,No
1,0,1,0,0,3,0,0,0,0,0,0,0,806,0,No
16,14,61,0,0,5,0,0,0,0,0,0,0,200,0,No
1,5,2,0,0,3,0,0,0,0,0,0,0,302,0,No
9,9,15,0,0,3,0,0,0,0,0,0,0,473,0,No
3,3,3,0,0,4,0,0,0,0,0,0,0,305,0,No
5,2,5,0,0,5,0,0,0,0,0,0,0,754,0,No
1,2,2,0,0,4,0,0,0,0,0,0,0,602,0,No
7,6,9,0,0,5,0,0,0,0,0,0,0,754,0,No
7,3,7,0,0,4,0,0,0,0,0,0,0,295,0,No
5,6,32,0,0,5,0,0,0,0,0,0,0,362,0,No
10,4,11,0,0,3,0,0,0,0,0,0,0,187,0,No
5,3,7,0,0,5,0,0,0,0,0,0,0,775,0,No
5,4,7,0,0,5,0,0,0,0,0,0,0,775,0,No
18,6,30,0,0,5,0,0,0,0,0,0,0,845,0,No
16,8,23,0,0,5,0,0,0,0,0,0,0,670,0,No
6,4,6,0,0,5,0,0,0,0,0,0,0,288,0,No
13,7,21,6,1,5,3,3,0,0,1,2,2,796,0,No
2,3,2,0,0,4,0,0,0,0,0,0,0,602,0,No
4,0,4,0,0,1,0,0,0,0,0,0,0,187,0,No
2,0,2,0,0,3,0,0,0,0,0,0,0,525,0,No
1,1,2,0,0,3,0,0,0,0,0,0,0,295,0,No
1,1,2,0,0,3,0,0,0,0,0,0,0,295,0,No
1,0,1,0,0,3,0,0,0,0,0,0,0,806,0,No
14,2,33,0,0,3,0,0,0,0,0,0,0,214,0,No
3,0,3,0,0,3,0,0,0,0,0,0,0,564,0,No
1,0,1,0,0,3,0,0,0,0,0,0,0,754,0,No
2,1,2,0,0,3,0,0,0,0,0,0,0,362,0,No
2,0,3,0,0,3,0,0,0,0,0,0,0,754,0,No
4,0,7,0,0,3,0,0,0,0,0,0,0,754,0,No
1,0,1,0,0,3,0,0,0,0,0,0,0,806,0,No
0,0,0,0,0,3,0,0,0,0,0,0,0,806,0,No
8,0,14,0,0,4,0,0,0,0,0,0,0,362,0,No
25,0,35,0,0,1,0,0,0,0,0,0,0,175,0,No
12,0,20,0,0,1,0,0,0,0,0,0,0,167,0,No
1,4,9,0,0,3,0,0,0,0,0,0,0,208,0,No
13,3,18,0,0,5,0,0,0,0,0,0,0,799,0,No
2,0,2,0,0,3,0,0,0,0,0,0,0,806,0,No
25,0,42,0,0,4,0,0,0,0,0,0,0,799,0,No
6,3,12,0,0,4,0,0,0,0,0,0,0,819,0,No
8,0,12,0,0,4,0,0,0,0,0,0,0,200,0,No
8,0,10,0,0,4,0,0,0,0,0,0,0,480,0,No
0,1,0,0,0,4,0,0,0,0,0,0,0,799,0,No
4,1,4,0,0,3,0,0,0,0,0,0,0,834,0,No
23,5,31,0,0,4,0,0,0,0,0,0,0,302,0,No
16,1,17,0,0,4,0,0,0,0,0,0,0,295,0,No
0,1,0,0,0,3,0,0,0,0,0,0,0,799,0,No
6,4,6,0,0,3,0,0,0,0,0,0,0,375,0,No
14,5,14,0,0,4,0,0,0,0,0,0,0,683,0,No
6,1,8,0,0,3,0,0,0,0,0,0,0,200,0,No
5,2,7,0,0,3,0,0,0,0,0,0,0,200,0,No
4,1,4,0,0,3,0,0,0,0,0,0,0,406,0,No
15,2,15,0,0,3,0,0,0,0,0,0,0,790,0,No
0,1,0,0,0,3,0,0,0,0,0,0,0,799,0,No
4,0,4,0,0,3,0,0,0,0,0,0,0,845,0,No
6,2,6,0,0,3,0,0,0,0,0,0,0,834,0,No
5,0,10,0,0,3,0,0,0,0,0,0,0,683,0,No
4,0,4,0,0,3,0,0,0,0,0,0,0,683,0,No
8,4,11,0,0,3,0,0,0,0,0,0,0,292,0,No
11,4,19,0,0,4,0,0,0,0,0,0,0,799,0,No
5,3,7,0,0,4,0,0,0,0,0,0,0,641,0,No
3,2,4,0,0,4,0,0,0,0,0,0,0,845,0,No
4,3,6,0,0,4,0,0,0,0,0,0,0,799,0,No
0,1,0,0,0,3,0,0,0,0,0,0,0,799,0,No
0,1,0,0,0,3,0,0,0,0,0,0,0,799,0,No
5,3,7,0,0,4,0,0,0,0,0,0,0,799,0,No
0,1,0,0,0,3,0,0,0,0,0,0,0,799,0,No
0,0,0,0,0,3,0,0,0,0,0,0,0,806,0,No
11,4,19,0,0,4,0,0,0,0,0,0,0,799,0,No
5,3,7,0,0,4,0,0,0,0,0,0,0,641,0,No
3,2,4,0,0,4,0,0,0,0,0,0,0,845,0,No
4,3,6,0,0,4,0,0,0,0,0,0,0,799,0,No
0,1,0,0,0,3,0,0,0,0,0,0,0,799,0,No
0,1,0,0,0,3,0,0,0,0,0,0,0,799,0,No
5,3,7,0,0,4,0,0,0,0,0,0,0,799,0,No
0,1,0,0,0,3,0,0,0,0,0,0,0,799,0,No
39,11,72,0,0,4,0,0,0,0,0,0,0,799,0,No
11,4,19,0,0,4,0,0,0,0,0,0,0,799,0,No
5,3,7,0,0,4,0,0,0,0,0,0,0,641,0,No
3,2,4,0,0,4,0,0,0,0,0,0,0,845,0,No
4,3,6,0,0,4,0,0,0,0,0,0,0,799,0,No
0,2,0,0,0,3,0,0,0,0,0,0,0,799,0,No
0,2,0,0,0,3,0,0,0,0,0,0,0,799,0,No
5,3,8,0,0,5,0,0,0,0,0,0,0,799,0,No
0,2,0,0,0,3,0,0,0,0,0,0,0,799,0,No
5,2,5,0,0,3,0,0,0,0,0,0,0,845,0,No
5,2,5,0,0,3,0,0,0,0,0,0,0,845,0,No
5,2,5,0,0,3,0,0,0,0,0,0,0,845,0,No
4,2,4,0,0,3,0,0,0,0,0,0,0,845,0,No
4,1,4,0,0,3,0,0,0,0,0,0,0,806,0,No
5,2,5,0,0,3,0,0,0,0,0,0,0,845,0,No
5,4,5,0,0,3,0,0,0,0,0,0,0,845,0,No
6,3,6,0,0,3,0,0,0,0,0,0,0,845,0,No
5,3,5,0,0,3,0,0,0,0,0,0,0,845,0,No
5,4,5,0,0,3,0,0,0,0,0,0,0,845,0,No
1,0,1,0,0,3,0,0,0,0,0,0,0,806,0,No
4,2,4,0,0,3,0,0,0,0,0,0,0,406,0,No
8,5,8,0,0,3,0,0,0,0,0,0,0,806,0,No
7,2,7,0,0,3,0,0,0,0,0,0,0,845,0,No
7,3,7,0,0,3,0,0,0,0,0,0,0,845,0,No
8,4,8,0,0,3,0,0,0,0,0,0,0,845,0,No
5,4,5,0,0,3,0,0,0,0,0,0,0,845,0,No
12,5,12,0,0,3,0,0,0,0,0,0,0,845,0,No
8,3,8,0,0,3,0,0,0,0,0,0,0,845,0,No
13,5,13,0,0,3,0,0,0,0,0,0,0,845,0,No
4,2,4,0,0,3,0,0,0,0,0,0,0,406,0,No
4,2,4,0,0,5,0,0,0,0,0,0,0,845,0,No
5,2,5,0,0,3,0,0,0,0,0,0,0,845,0,No
5,4,5,0,0,3,0,0,0,0,0,0,0,845,0,No
8,2,12,0,0,3,0,0,0,0,0,0,0,845,0,No
5,2,7,0,0,3,0,0,0,0,0,0,0,834,0,No
5,2,7,0,0,3,0,0,0,0,0,0,0,834,0,No
4,5,9,0,0,3,0,0,0,0,0,0,0,834,0,No
5,2,7,0,0,3,0,0,0,0,0,0,0,834,0,No
5,6,8,0,0,3,0,0,0,0,0,0,0,834,0,No
6,5,9,0,0,3,0,0,0,0,0,0,0,834,0,No
5,4,8,0,0,3,0,0,0,0,0,0,0,208,0,No
5,6,8,0,0,3,0,0,0,0,0,0,0,769,0,No
4,3,4,0,0,3,0,0,0,0,0,0,0,302,0,No
8,6,14,0,0,3,0,0,0,0,0,0,0,375,0,No
7,3,10,0,0,3,0,0,0,0,0,0,0,200,0,No
8,4,12,0,0,3,0,0,0,0,0,0,0,200,0,No
5,6,8,0,0,3,0,0,0,0,0,0,0,834,0,No
13,8,23,0,0,4,0,0,0,0,0,0,0,834,0,No
9,7,14,0,0,3,0,0,0,0,0,0,0,834,0,No
4,3,4,0,0,3,0,0,0,0,0,0,0,302,0,No
5,2,7,0,0,3,0,0,0,0,0,0,0,834,0,No
5,6,8,0,0,3,0,0,0,0,0,0,0,834,0,No
3,3,16,0,0,3,0,0,0,0,0,0,0,816,0,No
1,2,2,0,0,3,0,0,0,0,0,0,0,845,0,No
1,3,6,0,0,4,0,0,0,0,0,0,0,845,0,No
1,2,2,0,0,3,0,0,0,0,0,0,0,816,0,No
0,1,0,0,0,3,0,0,0,0,0,0,0,845,0,No
0,0,0,0,0,3,0,0,0,0,0,0,0,845,0,No
1,1,1,0,0,3,0,0,0,0,0,0,0,816,0,No
0,0,0,0,0,3,0,0,0,0,0,0,0,641,0,No
0,0,0,0,0,3,0,0,0,0,0,0,0,641,0,No
0,0,0,0,0,3,0,0,0,0,0,0,0,641,0,No
1,0,2,0,0,3,0,0,0,0,0,0,0,641,0,No
0,0,0,0,0,3,0,0,0,0,0,0,0,641,0,No
4,1,7,0,0,3,0,0,0,0,0,0,0,641,0,No
0,0,0,0,0,3,0,0,0,0,0,0,0,406,0,No
0,0,0,0,0,3,0,0,0,0,0,0,0,641,0,No
0,0,0,0,0,3,0,0,0,0,0,0,0,406,0,No
0,0,0,0,0,3,0,0,0,0,0,0,0,406,0,No
0,0,0,0,0,3,0,0,0,0,0,0,0,406,0,No
0,0,0,0,0,3,0,0,0,0,0,0,0,641,0,No
0,0,0,0,0,3,0,0,0,0,0,0,0,641,0,No
0,0,0,0,0,3,0,0,0,0,0,0,0,406,0,No
0,0,0,0,0,3,0,0,0,0,0,0,0,641,0,No
0,0,0,0,0,3,0,0,0,0,0,0,0,641,0,No
0,0,0,0,0,3,0,0,0,0,0,0,0,806,0,No
12,2,58,0,0,3,0,0,0,0,0,0,0,362,0,No
0,0,0,0,0,3,0,0,0,0,0,0,0,806,0,No
0,0,0,0,0,3,0,0,0,0,0,0,0,806,0,No
12,1,32,0,0,4,0,0,0,0,0,0,0,760,0,Yes
1,0,1,0,0,3,0,0,0,0,0,0,0,845,0,No
0,0,0,0,0,3,0,0,0,0,0,0,0,806,0,No
5,3,6,0,0,3,0,0,0,0,0,0,0,406,0,No
0,0,0,0,0,3,0,0,0,0,0,0,0,406,0,No
2,1,2,0,0,4,0,0,0,0,0,0,0,200,0,No
0,1,0,0,0,3,0,0,0,0,0,0,0,406,0,No
1,1,10,0,0,1,0,0,0,0,0,0,0,175,0,No
2,7,3,0,0,3,0,0,0,0,0,0,0,624,0,No
5,9,9,0,0,4,0,0,0,0,0,0,0,797,0,No
0,0,0,0,0,3,0,0,0,0,0,0,0,806,0,No
8,21,20,0,0,5,0,0,0,0,0,0,0,783,0,No
8,13,27,0,0,4,0,0,0,0,0,0,0,774,0,No
5,9,9,0,0,4,0,0,0,0,0,0,0,802,0,No
1,0,1,0,0,3,0,0,0,0,0,0,0,845,0,No
9,12,16,0,0,5,0,0,0,0,0,0,0,292,0,No
5,9,9,0,0,5,0,0,0,0,0,0,0,480,0,No
3,7,3,0,0,3,0,0,0,0,0,0,0,295,0,No
2,2,2,0,0,3,0,0,0,0,0,0,0,770,0,No
3,9,22,0,0,4,0,0,0,0,0,0,0,785,0,No
4,7,7,0,0,3,0,0,0,0,0,0,0,797,0,No
3,2,3,0,0,4,0,0,0,0,0,0,0,302,0,No
4,10,9,0,0,3,0,0,0,0,0,0,0,797,0,No
8,0,10,0,0,3,0,0,0,0,0,0,0,812,0,No
6,7,10,0,0,4,0,0,0,0,0,0,0,292,0,No
0,0,0,0,0,3,0,0,0,0,0,0,0,806,0,No
3,6,9,0,0,3,0,0,0,0,0,0,0,621,0,No
2,0,2,0,0,3,0,0,0,0,0,0,0,845,0,No
3,3,18,0,0,5,0,0,0,0,0,0,0,340,0,No
2,0,8,0,0,3,0,0,0,0,0,0,0,208,0,No
4,10,20,0,0,3,0,0,0,0,0,0,0,406,0,No
14,0,18,0,0,4,0,0,0,0,0,0,0,229,0,No
12,6,12,0,0,4,0,0,0,0,0,0,0,313,0,No
0,0,0,0,0,3,0,0,0,0,0,0,0,406,0,No
9,1,9,0,0,3,0,0,0,0,0,0,0,295,0,No
2,3,2,0,0,3,0,0,0,0,0,0,0,319,0,No
1,1,1,0,0,4,0,0,0,0,0,0,0,406,0,No
1,3,1,0,0,4,0,0,0,0,0,0,0,319,0,No
1,2,2,0,0,4,0,0,0,0,0,0,0,319,0,No
1,2,1,0,0,3,0,0,0,0,0,0,0,319,0,No
1,1,1,0,0,3,0,0,0,0,0,0,0,406,0,No
1,0,1,0,0,3,0,0,0,0,0,0,0,406,0,No
4,0,4,0,0,3,0,0,0,0,0,0,0,406,0,No
13,4,16,0,0,3,0,0,0,0,0,0,0,307,0,No
1,4,1,0,0,4,0,0,0,0,0,0,0,319,0,No
0,0,0,0,0,3,0,0,0,0,0,0,0,806,0,No
1,0,16,0,0,3,0,0,0,0,0,0,0,224,0,No
0,1,0,0,0,3,0,0,0,0,0,0,0,438,0,No
0,0,0,0,0,3,0,0,0,0,0,0,0,438,0,No
3,0,3,0,0,3,0,0,0,0,0,0,0,877,0,No
1,0,2,0,0,4,0,0,0,0,0,0,0,877,0,No
2,0,2,0,0,4,0,0,0,0,0,0,0,253,0,No
35,1,42,0,0,4,0,0,0,0,0,0,0,793,0,No
11,1,12,0,0,3,0,0,0,0,0,0,0,793,0,No
19,0,28,0,0,3,0,0,0,0,0,0,0,813,0,No
13,0,17,0,0,4,0,0,0,0,0,0,0,793,0,No
2,1,2,0,0,3,0,0,0,0,0,0,0,438,0,No
1,0,1,0,0,3,0,0,0,0,0,0,0,232,0,No
12,1,14,0,0,1,0,0,0,0,0,0,0,207,0,No
10,3,10,0,0,3,0,0,0,0,0,0,0,232,0,No
7,1,11,0,0,3,0,0,0,0,0,0,0,724,0,No
3,1,3,0,0,3,0,0,0,0,0,0,0,877,0,No
16,0,20,4,0,4,2,2,0,0,3,14,30,844,0,No
10,1,14,0,0,3,0,0,0,0,0,0,0,715,0,No
2,2,2,0,0,3,0,0,0,0,0,0,0,877,0,No
4,1,4,0,0,3,0,0,0,0,0,0,0,877,0,No
12,2,12,0,0,3,0,0,0,0,0,0,0,815,0,No
19,3,25,2,0,4,1,1,0,0,3,14,30,817,0,No
5,1,7,2,0,4,1,1,0,0,3,14,30,253,0,No
4,1,4,0,0,3,0,0,0,0,0,0,0,834,0,No
4,2,4,0,0,3,0,0,0,0,0,0,0,877,0,No
24,4,27,0,0,4,0,0,0,0,0,0,0,334,0,No
16,1,17,10,1,3,10,10,10,10,2,5,5,327,0,No
2,2,2,0,0,3,0,0,0,0,0,0,0,877,0,No
5,2,5,0,0,3,0,0,0,0,0,0,0,877,0,No
8,2,8,0,0,4,0,0,0,0,0,0,0,229,0,No
14,2,14,0,0,3,0,0,0,0,0,0,0,715,0,No
3,1,3,0,0,3,0,0,0,0,0,0,0,438,0,No
24,2,32,0,0,3,0,0,0,0,0,0,0,232,0,No
36,4,36,0,0,3,0,0,0,0,0,0,0,813,0,No
25,0,31,0,0,3,0,0,0,0,0,0,0,806,0,No
8,0,12,0,0,3,0,0,0,0,0,0,0,877,0,No
14,2,14,0,0,3,0,0,0,0,0,0,0,822,0,No
20,2,21,0,0,4,0,0,0,0,0,0,0,877,0,No
2,2,2,0,0,3,0,0,0,0,0,0,0,877,0,No
16,0,16,0,0,3,0,0,0,0,0,0,0,438,0,No
2,0,2,0,0,3,0,0,0,0,0,0,0,715,0,No
12,1,16,0,0,3,0,0,0,0,0,0,0,715,0,No
10,3,13,0,0,3,0,0,0,0,0,0,0,324,0,No
2,1,2,0,0,3,0,0,0,0,0,0,0,877,0,No
4,1,4,0,0,3,0,0,0,0,0,0,0,438,0,No
20,2,21,0,0,3,0,0,0,0,0,0,0,340,0,No
10,11,52,0,0,5,0,0,0,0,0,0,0,320,0,Yes
7,1,13,0,0,3,0,0,0,0,0,0,0,822,0,No
8,1,8,0,0,3,0,0,0,0,0,0,0,822,0,No
20,1,24,0,0,3,0,0,0,0,0,0,0,838,0,No
0,0,0,0,0,3,0,0,0,0,0,0,0,838,0,No
5,3,9,0,0,1,0,0,0,0,0,0,0,191,0,No
0,0,0,0,0,3,0,0,0,0,0,0,0,838,0,No
1,0,1,0,0,3,0,0,0,0,0,0,0,838,0,No
0,0,0,0,0,3,0,0,0,0,0,0,0,838,0,No
48,1,52,0,0,4,0,0,0,0,0,0,0,407,0,No
1,0,1,0,0,3,0,0,0,0,0,0,0,838,0,No
0,0,0,0,0,3,0,0,0,0,0,0,0,838,0,No
0,0,0,0,0,3,0,0,0,0,0,0,0,838,0,No
1,0,2,0,0,3,0,0,0,0,0,0,0,838,0,No
0,0,0,0,0,3,0,0,0,0,0,0,0,838,0,No
0,0,0,0,0,3,0,0,0,0,0,0,0,838,0,No
4,1,6,0,0,4,0,0,0,0,0,0,0,838,0,No
2,0,9,0,0,3,0,0,0,0,0,0,0,240,0,No
1,0,1,0,0,3,0,0,0,0,0,0,0,838,0,No
0,0,0,0,0,3,0,0,0,0,0,0,0,838,0,No
0,0,0,0,0,3,0,0,0,0,0,0,0,438,0,No
0,0,0,0,0,3,0,0,0,0,0,0,0,438,0,No
0,0,0,0,0,3,0,0,0,0,0,0,0,838,0,No
6,12,16,0,0,4,0,0,0,0,0,0,0,838,0,No
11,1,13,0,0,5,0,0,0,0,0,0,0,838,0,No
0,0,0,0,0,3,0,0,0,0,0,0,0,838,0,No
7,2,16,0,0,2,0,0,0,0,0,0,0,219,0,No
2,0,2,0,0,3,0,0,0,0,0,0,0,438,0,No
2,0,3,0,0,3,0,0,0,0,0,0,0,877,0,No
2,0,7,0,0,3,0,0,0,0,0,0,0,557,0,No
2,2,5,0,0,3,0,0,0,0,0,0,0,555,0,No
4,3,8,0,0,3,0,0,0,0,0,0,0,330,0,No
2,0,8,0,0,3,0,0,0,0,0,0,0,666,0,No
1,1,1,0,0,3,0,0,0,0,0,0,0,838,0,No
2,7,4,0,0,3,0,0,0,0,0,0,0,232,0,No
0,0,0,0,0,3,0,0,0,0,0,0,0,838,0,No
0,0,0,0,0,3,0,0,0,0,0,0,0,438,0,No
0,0,0,0,0,3,0,0,0,0,0,0,0,838,0,No
0,3,0,0,0,4,0,0,0,0,0,0,0,327,0,No
0,2,0,0,0,3,0,0,0,0,0,0,0,507,0,No
3,2,3,0,0,1,0,0,0,0,0,0,0,219,0,No
1,2,1,4,0,4,2,2,0,0,1,2,3,437,0,No
2,6,3,4,0,3,2,2,0,0,1,2,3,437,0,No
11,9,16,6,0,5,3,2,0,0,2,4,28,838,0,No
2,3,2,0,0,3,0,0,0,0,0,0,0,507,0,No
0,3,0,0,0,3,0,0,0,0,0,0,0,232,0,No
8,7,12,2,0,4,1,1,0,0,1,2,25,505,0,No
1,0,1,0,0,3,0,0,0,0,0,0,0,838,0,No
16,14,61,12,0,6,6,4,0,0,4,16,55,232,0,No
1,5,2,0,0,3,0,0,0,0,0,0,0,334,0,No
9,9,15,0,0,3,0,0,0,0,0,0,0,505,0,No
3,3,3,0,0,4,0,0,0,0,0,0,0,337,0,Yes
5,2,5,0,0,5,0,0,0,0,0,0,0,786,0,No
1,2,2,0,0,4,0,0,0,0,0,0,0,634,0,No
7,6,9,0,0,5,0,0,0,0,0,0,0,786,0,No
7,3,7,0,0,4,0,0,0,0,0,0,0,327,0,No
5,6,32,0,0,5,0,0,0,0,0,0,0,394,0,Yes
10,4,11,0,0,3,0,0,0,0,0,0,0,219,0,No
5,3,7,0,0,5,0,0,0,0,0,0,0,807,0,No
5,4,7,0,0,5,0,0,0,0,0,0,0,807,0,No
18,6,30,0,0,5,0,0,0,0,0,0,0,877,0,No
16,8,23,2,0,5,1,1,0,0,3,14,30,702,0,Yes
6,4,6,0,0,5,0,0,0,0,0,0,0,320,0,No
13,7,21,0,1,5,0,0,0,0,0,0,0,828,0,Yes
2,3,2,0,0,4,0,0,0,0,0,0,0,634,0,No
4,0,4,0,0,1,0,0,0,0,0,0,0,219,0,No
2,0,2,0,0,3,0,0,0,0,0,0,0,557,0,No
1,1,2,0,0,3,0,0,0,0,0,0,0,327,0,No
1,1,2,0,0,3,0,0,0,0,0,0,0,327,0,No
1,0,1,0,0,3,0,0,0,0,0,0,0,838,0,No
14,2,33,0,0,3,0,0,0,0,0,0,0,246,0,No
3,0,3,0,0,3,0,0,0,0,0,0,0,596,0,No
1,0,1,0,0,3,0,0,0,0,0,0,0,786,0,No
2,1,2,0,0,3,0,0,0,0,0,0,0,394,0,No
2,0,3,0,0,3,0,0,0,0,0,0,0,786,0,No
4,0,7,2,0,4,1,1,0,0,3,14,30,786,0,No
1,0,1,0,0,3,0,0,0,0,0,0,0,838,0,No
0,0,0,0,0,3,0,0,0,0,0,0,0,838,0,No
8,0,14,0,0,4,0,0,0,0,0,0,0,394,0,No
25,0,35,0,0,1,0,0,0,0,0,0,0,207,0,No
12,0,20,0,0,1,0,0,0,0,0,0,0,199,0,No
1,4,9,0,0,3,0,0,0,0,0,0,0,240,0,No
1,0,1,0,0,3,0,0,0,0,0,0,0,838,0,No
13,3,18,0,0,5,0,0,0,0,0,0,0,831,0,No
2,0,2,0,0,3,0,0,0,0,0,0,0,838,0,No
25,0,42,0,0,4,0,0,0,0,0,0,0,831,0,No
6,3,12,0,0,4,0,0,0,0,0,0,0,851,0,No
8,0,13,0,0,4,0,0,0,0,0,0,0,232,0,No
8,0,10,0,0,4,0,0,0,0,0,0,0,512,0,No
0,1,0,0,0,4,0,0,0,0,0,0,0,831,0,No
4,1,4,0,0,3,0,0,0,0,0,0,0,866,0,No
23,5,31,0,0,4,0,0,0,0,0,0,0,334,0,No
16,1,17,0,0,4,0,0,0,0,0,0,0,327,0,No
0,1,0,0,0,3,0,0,0,0,0,0,0,831,0,No
6,4,6,0,0,3,0,0,0,0,0,0,0,407,0,No
14,5,14,0,0,4,0,0,0,0,0,0,0,715,0,No
6,1,8,0,0,3,0,0,0,0,0,0,0,232,0,No
5,2,7,0,0,3,0,0,0,0,0,0,0,232,0,No
4,1,4,0,0,3,0,0,0,0,0,0,0,438,0,No
15,2,15,0,0,3,0,0,0,0,0,0,0,822,0,No
0,1,0,0,0,3,0,0,0,0,0,0,0,831,0,No
4,0,4,0,0,3,0,0,0,0,0,0,0,877,0,No
6,2,6,0,0,3,0,0,0,0,0,0,0,866,0,No
5,0,10,0,0,3,0,0,0,0,0,0,0,715,0,No
4,0,4,0,0,3,0,0,0,0,0,0,0,715,0,No
8,4,11,0,0,3,0,0,0,0,0,0,0,324,0,No
11,4,19,0,0,4,0,0,0,0,0,0,0,831,0,No
5,3,7,0,0,4,0,0,0,0,0,0,0,673,0,No
3,2,4,0,0,4,0,0,0,0,0,0,0,877,0,No
4,3,6,0,0,4,0,0,0,0,0,0,0,831,0,No
0,1,0,0,0,3,0,0,0,0,0,0,0,831,0,No
0,1,0,0,0,3,0,0,0,0,0,0,0,831,0,No
5,3,7,2,0,5,1,1,0,0,3,14,30,831,0,No
0,1,0,0,0,3,0,0,0,0,0,0,0,831,0,No
0,0,0,0,0,3,0,0,0,0,0,0,0,838,0,No
11,4,19,0,0,4,0,0,0,0,0,0,0,831,0,No
5,3,7,0,0,4,0,0,0,0,0,0,0,673,0,No
3,2,4,0,0,4,0,0,0,0,0,0,0,877,0,No
4,3,6,0,0,4,0,0,0,0,0,0,0,831,0,No
0,1,0,0,0,3,0,0,0,0,0,0,0,831,0,No
0,1,0,0,0,3,0,0,0,0,0,0,0,831,0,No
5,3,7,2,0,5,1,1,0,0,3,14,30,831,0,No
0,1,0,0,0,3,0,0,0,0,0,0,0,831,0,No
39,11,72,0,0,4,0,0,0,0,0,0,0,831,0,No
11,4,19,0,0,4,0,0,0,0,0,0,0,831,0,No
5,3,7,0,0,4,0,0,0,0,0,0,0,673,0,No
3,2,4,0,0,4,0,0,0,0,0,0,0,877,0,No
4,3,6,0,0,4,0,0,0,0,0,0,0,831,0,No
0,2,0,0,0,3,0,0,0,0,0,0,0,831,0,No
0,2,0,0,0,3,0,0,0,0,0,0,0,831,0,No
5,3,8,0,0,5,0,0,0,0,0,0,0,831,0,No
0,2,0,0,0,3,0,0,0,0,0,0,0,831,0,No
5,2,5,0,0,3,0,0,0,0,0,0,0,877,0,No
5,2,5,0,0,3,0,0,0,0,0,0,0,877,0,No
5,2,5,0,0,3,0,0,0,0,0,0,0,877,0,No
4,2,4,0,0,3,0,0,0,0,0,0,0,877,0,No
4,1,4,0,0,3,0,0,0,0,0,0,0,838,0,No
5,2,5,0,0,3,0,0,0,0,0,0,0,877,0,No
5,4,5,0,0,3,0,0,0,0,0,0,0,877,0,No
6,3,6,0,0,3,0,0,0,0,0,0,0,877,0,No
5,3,5,0,0,3,0,0,0,0,0,0,0,877,0,No
5,4,5,0,0,3,0,0,0,0,0,0,0,877,0,No
1,0,1,0,0,3,0,0,0,0,0,0,0,838,0,No
4,2,4,0,0,3,0,0,0,0,0,0,0,438,0,No
8,5,8,0,0,3,0,0,0,0,0,0,0,838,0,No
7,2,7,0,0,3,0,0,0,0,0,0,0,877,0,No
7,3,7,0,0,3,0,0,0,0,0,0,0,877,0,No
8,4,8,0,0,3,0,0,0,0,0,0,0,877,0,No
5,4,5,0,0,3,0,0,0,0,0,0,0,877,0,No
12,5,12,0,0,3,0,0,0,0,0,0,0,877,0,No
8,3,8,0,0,3,0,0,0,0,0,0,0,877,0,No
13,5,13,0,0,3,0,0,0,0,0,0,0,877,0,No
4,2,4,0,0,3,0,0,0,0,0,0,0,438,0,No
4,2,4,0,0,5,0,0,0,0,0,0,0,877,0,No
5,2,5,0,0,3,0,0,0,0,0,0,0,877,0,No
5,4,5,0,0,3,0,0,0,0,0,0,0,877,0,No
8,2,12,0,0,3,0,0,0,0,0,0,0,877,0,No
5,2,7,0,0,3,0,0,0,0,0,0,0,866,0,No
5,2,7,0,0,3,0,0,0,0,0,0,0,866,0,No
4,5,9,0,0,3,0,0,0,0,0,0,0,866,0,No
5,2,7,0,0,3,0,0,0,0,0,0,0,866,0,No
5,6,8,0,0,3,0,0,0,0,0,0,0,866,0,No
6,5,9,0,0,3,0,0,0,0,0,0,0,866,0,No
5,4,8,0,0,3,0,0,0,0,0,0,0,240,0,No
5,6,8,0,0,3,0,0,0,0,0,0,0,801,0,No
4,3,4,0,0,3,0,0,0,0,0,0,0,334,0,No
8,6,14,0,0,3,0,0,0,0,0,0,0,407,0,No
7,3,10,0,0,3,0,0,0,0,0,0,0,232,0,No
8,4,12,0,0,3,0,0,0,0,0,0,0,232,0,No
5,6,8,0,0,3,0,0,0,0,0,0,0,866,0,No
13,8,23,0,0,4,0,0,0,0,0,0,0,866,0,No
9,7,14,0,0,3,0,0,0,0,0,0,0,866,0,No
4,3,4,0,0,3,0,0,0,0,0,0,0,334,0,No
5,2,7,0,0,3,0,0,0,0,0,0,0,866,0,No
5,6,8,0,0,3,0,0,0,0,0,0,0,866,0,No
2,2,2,0,0,3,0,0,0,0,0,0,0,848,0,No
1,2,2,0,0,3,0,0,0,0,0,0,0,877,0,No
1,3,6,0,0,4,0,0,0,0,0,0,0,877,0,No
1,2,2,0,0,3,0,0,0,0,0,0,0,848,0,No
0,1,0,0,0,3,0,0,0,0,0,0,0,877,0,No
0,0,0,0,0,3,0,0,0,0,0,0,0,877,0,No
1,1,1,0,0,3,0,0,0,0,0,0,0,848,0,No
0,0,0,0,0,3,0,0,0,0,0,0,0,673,0,No
0,0,0,0,0,3,0,0,0,0,0,0,0,673,0,No
0,0,0,0,0,3,0,0,0,0,0,0,0,673,0,No
1,0,2,0,0,3,0,0,0,0,0,0,0,673,0,No
0,0,0,0,0,3,0,0,0,0,0,0,0,673,0,No
4,1,7,0,0,3,0,0,0,0,0,0,0,673,0,No
0,0,0,0,0,3,0,0,0,0,0,0,0,438,0,No
0,0,0,0,0,3,0,0,0,0,0,0,0,673,0,No
0,0,0,0,0,3,0,0,0,0,0,0,0,438,0,No
0,0,0,0,0,3,0,0,0,0,0,0,0,438,0,No
0,0,0,0,0,3,0,0,0,0,0,0,0,438,0,No
0,0,0,0,0,3,0,0,0,0,0,0,0,673,0,No
0,0,0,0,0,3,0,0,0,0,0,0,0,673,0,No
0,0,0,0,0,3,0,0,0,0,0,0,0,438,0,No
0,0,0,0,0,3,0,0,0,0,0,0,0,673,0,No
0,0,0,0,0,3,0,0,0,0,0,0,0,673,0,No
0,0,0,0,0,3,0,0,0,0,0,0,0,838,0,No
12,2,58,0,0,3,0,0,0,0,0,0,0,394,0,No
0,0,0,0,0,3,0,0,0,0,0,0,0,838,0,No
0,0,0,0,0,3,0,0,0,0,0,0,0,838,0,No
12,1,32,24,1,4,9,8,-6,0,4,17,34,792,0,No
1,0,1,0,0,3,0,0,0,0,0,0,0,877,0,No
0,0,0,0,0,3,0,0,0,0,0,0,0,838,0,No
5,3,6,0,0,3,0,0,0,0,0,0,0,438,0,No
0,0,0,0,0,3,0,0,0,0,0,0,0,438,0,No
2,1,2,0,0,4,0,0,0,0,0,0,0,232,0,No
0,1,0,0,0,3,0,0,0,0,0,0,0,438,0,No
1,1,10,0,0,1,0,0,0,0,0,0,0,207,0,No
2,7,3,0,0,3,0,0,0,0,0,0,0,656,0,No
5,9,9,0,0,4,0,0,0,0,0,0,0,829,0,No
0,0,0,0,0,3,0,0,0,0,0,0,0,838,0,No
8,21,20,0,0,5,0,0,0,0,0,0,0,815,0,No
8,13,27,0,0,4,0,0,0,0,0,0,0,806,0,No
5,9,9,0,0,4,0,0,0,0,0,0,0,834,0,No
1,0,1,0,0,3,0,0,0,0,0,0,0,877,0,No
9,12,16,0,0,5,0,0,0,0,0,0,0,324,0,No
5,9,9,0,0,5,0,0,0,0,0,0,0,512,0,No
3,7,3,0,0,3,0,0,0,0,0,0,0,327,0,Yes
2,2,2,0,0,3,0,0,0,0,0,0,0,802,0,No
3,9,22,0,0,4,0,0,0,0,0,0,0,817,0,No
4,7,7,0,0,3,0,0,0,0,0,0,0,829,0,No
3,2,3,0,0,4,0,0,0,0,0,0,0,334,0,No
4,10,9,0,0,3,0,0,0,0,0,0,0,829,0,No
8,0,10,0,0,3,0,0,0,0,0,0,0,844,0,No
6,7,10,0,0,4,0,0,0,0,0,0,0,324,0,No
0,0,0,0,0,3,0,0,0,0,0,0,0,838,0,No
3,6,9,0,0,3,0,0,0,0,0,0,0,653,0,No
2,0,2,0,0,3,0,0,0,0,0,0,0,877,0,No
3,3,18,0,0,5,0,0,0,0,0,0,0,372,0,No
2,0,8,0,0,3,0,0,0,0,0,0,0,240,0,No
4,10,20,0,0,3,0,0,0,0,0,0,0,438,0,No
14,0,18,0,0,4,0,0,0,0,0,0,0,261,0,No
13,7,13,0,0,4,0,0,0,0,0,0,0,345,0,No
15,8,19,2,0,5,1,1,0,0,3,14,30,362,0,No
0,0,0,0,0,3,0,0,0,0,0,0,0,438,0,No
9,1,9,0,0,3,0,0,0,0,0,0,0,327,0,No
2,3,2,0,0,3,0,0,0,0,0,0,0,351,0,No
1,1,1,0,0,4,0,0,0,0,0,0,0,438,0,No
1,3,1,0,0,4,0,0,0,0,0,0,0,351,0,No
1,2,2,0,0,4,0,0,0,0,0,0,0,351,0,No
1,2,1,0,0,3,0,0,0,0,0,0,0,351,0,No
1,1,1,0,0,3,0,0,0,0,0,0,0,438,0,No
1,0,1,0,0,3,0,0,0,0,0,0,0,438,0,No
4,0,4,0,0,3,0,0,0,0,0,0,0,438,0,No
13,4,16,2,0,4,1,1,0,0,3,14,30,339,0,No
1,4,1,0,0,4,0,0,0,0,0,0,0,351,0,No
0,0,0,0,0,3,0,0,0,0,0,0,0,838,0,No
1,0,16,0,0,3,0,0,0,0,0,0,0,256,0,No
0,1,0,0,0,3,0,0,0,0,0,0,0,440,0,No
0,0,0,0,0,3,0,0,0,0,0,0,0,440,0,No
3,0,3,0,0,3,0,0,0,0,0,0,0,879,0,No
1,0,2,0,0,4,0,0,0,0,0,0,0,879,0,No
2,0,2,0,0,4,0,0,0,0,0,0,0,255,0,No
35,1,42,0,0,4,0,0,0,0,0,0,0,795,0,No
11,1,12,0,0,3,0,0,0,0,0,0,0,795,0,No
21,0,32,0,0,3,0,0,0,0,0,0,0,815,0,Yes
13,0,17,0,0,4,0,0,0,0,0,0,0,795,0,No
2,1,2,0,0,3,0,0,0,0,0,0,0,440,0,No
1,0,1,0,0,3,0,0,0,0,0,0,0,234,0,No
12,1,14,0,0,1,0,0,0,0,0,0,0,209,0,No
10,3,10,0,0,3,0,0,0,0,0,0,0,234,0,No
7,1,11,0,0,3,0,0,0,0,0,0,0,726,0,No
3,1,3,0,0,3,0,0,0,0,0,0,0,879,0,No
16,0,20,0,0,4,0,0,0,0,0,0,0,846,0,No
10,1,14,0,0,3,0,0,0,0,0,0,0,717,0,No
2,2,2,0,0,3,0,0,0,0,0,0,0,879,0,No
4,1,4,0,0,3,0,0,0,0,0,0,0,879,0,No
12,2,12,0,0,3,0,0,0,0,0,0,0,817,0,No
19,3,25,0,0,4,0,0,0,0,0,0,0,819,0,No
5,1,7,0,0,4,0,0,0,0,0,0,0,255,0,No
4,1,4,0,0,3,0,0,0,0,0,0,0,836,0,No
4,2,4,0,0,3,0,0,0,0,0,0,0,879,0,No
24,4,27,0,0,4,0,0,0,0,0,0,0,336,0,No
16,1,17,0,1,3,0,0,0,0,0,0,0,329,0,No
2,2,2,0,0,3,0,0,0,0,0,0,0,879,0,No
5,2,5,0,0,3,0,0,0,0,0,0,0,879,0,No
8,2,8,0,0,4,0,0,0,0,0,0,0,231,0,No
14,2,14,0,0,3,0,0,0,0,0,0,0,717,0,No
3,1,3,0,0,3,0,0,0,0,0,0,0,440,0,No
24,2,32,0,0,3,0,0,0,0,0,0,0,234,0,No
36,4,36,0,0,3,0,0,0,0,0,0,0,815,0,No
25,0,31,0,0,3,0,0,0,0,0,0,0,808,0,No
8,0,12,0,0,3,0,0,0,0,0,0,0,879,0,No
14,2,14,0,0,3,0,0,0,0,0,0,0,824,0,No
20,2,21,0,0,4,0,0,0,0,0,0,0,879,0,No
2,2,2,0,0,3,0,0,0,0,0,0,0,879,0,No
16,0,16,0,0,3,0,0,0,0,0,0,0,440,0,No
2,0,2,0,0,3,0,0,0,0,0,0,0,717,0,No
12,1,16,0,0,3,0,0,0,0,0,0,0,717,0,No
10,3,13,0,0,3,0,0,0,0,0,0,0,326,0,No
2,1,2,0,0,3,0,0,0,0,0,0,0,879,0,No
4,1,4,0,0,3,0,0,0,0,0,0,0,440,0,No
20,2,21,0,0,3,0,0,0,0,0,0,0,342,0,No
10,11,52,0,0,5,0,0,0,0,0,0,0,322,0,Yes
7,1,13,0,0,3,0,0,0,0,0,0,0,824,0,No
8,1,8,0,0,3,0,0,0,0,0,0,0,824,0,No
20,1,24,0,0,3,0,0,0,0,0,0,0,840,0,No
0,0,0,0,0,3,0,0,0,0,0,0,0,840,0,No
5,3,9,0,0,1,0,0,0,0,0,0,0,193,0,No
0,0,0,0,0,3,0,0,0,0,0,0,0,840,0,No
1,0,1,0,0,3,0,0,0,0,0,0,0,840,0,No
0,0,0,0,0,3,0,0,0,0,0,0,0,840,0,No
48,1,52,0,0,4,0,0,0,0,0,0,0,409,0,No
1,0,1,0,0,3,0,0,0,0,0,0,0,840,0,No
0,0,0,0,0,3,0,0,0,0,0,0,0,840,0,No
0,0,0,0,0,3,0,0,0,0,0,0,0,840,0,No
1,0,2,0,0,3,0,0,0,0,0,0,0,840,0,No
0,0,0,0,0,3,0,0,0,0,0,0,0,840,0,No
0,0,0,0,0,3,0,0,0,0,0,0,0,840,0,No
4,1,6,0,0,4,0,0,0,0,0,0,0,840,0,No
2,0,9,0,0,3,0,0,0,0,0,0,0,242,0,No
1,0,1,0,0,3,0,0,0,0,0,0,0,840,0,No
0,0,0,0,0,3,0,0,0,0,0,0,0,840,0,No
0,0,0,0,0,3,0,0,0,0,0,0,0,440,0,No
0,0,0,0,0,3,0,0,0,0,0,0,0,440,0,No
0,0,0,0,0,3,0,0,0,0,0,0,0,840,0,No
6,12,16,0,0,4,0,0,0,0,0,0,0,840,0,No
11,1,13,0,0,5,0,0,0,0,0,0,0,840,0,No
0,0,0,0,0,3,0,0,0,0,0,0,0,840,0,No
7,2,16,0,0,2,0,0,0,0,0,0,0,221,0,No
2,0,2,0,0,3,0,0,0,0,0,0,0,440,0,No
2,0,3,0,0,3,0,0,0,0,0,0,0,879,0,No
2,0,7,0,0,3,0,0,0,0,0,0,0,559,0,No
2,2,5,0,0,3,0,0,0,0,0,0,0,557,0,No
4,3,8,0,0,3,0,0,0,0,0,0,0,332,0,No
2,0,8,0,0,3,0,0,0,0,0,0,0,668,0,No
1,1,1,0,0,3,0,0,0,0,0,0,0,840,0,No
2,7,4,0,0,3,0,0,0,0,0,0,0,234,0,No
0,0,0,0,0,3,0,0,0,0,0,0,0,840,0,No
0,0,0,0,0,3,0,0,0,0,0,0,0,440,0,No
0,0,0,0,0,3,0,0,0,0,0,0,0,840,0,No
0,3,0,0,0,4,0,0,0,0,0,0,0,329,0,No
0,2,0,0,0,3,0,0,0,0,0,0,0,509,0,No
3,2,3,0,0,1,0,0,0,0,0,0,0,221,0,No
1,2,1,0,0,4,0,0,0,0,0,0,0,439,0,No
2,6,3,0,0,3,0,0,0,0,0,0,0,439,0,No
11,9,16,0,0,5,0,0,0,0,0,0,0,840,0,No
2,3,2,0,0,3,0,0,0,0,0,0,0,509,0,No
0,3,0,0,0,3,0,0,0,0,0,0,0,234,0,No
8,7,12,0,0,4,0,0,0,0,0,0,0,507,0,No
1,0,1,0,0,3,0,0,0,0,0,0,0,840,0,No
16,14,61,0,0,6,0,0,0,0,0,0,0,234,0,No
1,5,2,0,0,3,0,0,0,0,0,0,0,336,0,No
9,9,15,0,0,3,0,0,0,0,0,0,0,507,0,No
3,3,3,0,0,4,0,0,0,0,0,0,0,339,0,Yes
5,2,5,0,0,5,0,0,0,0,0,0,0,788,0,No
1,2,2,0,0,4,0,0,0,0,0,0,0,636,0,No
7,6,9,0,0,5,0,0,0,0,0,0,0,788,0,No
7,3,7,0,0,4,0,0,0,0,0,0,0,329,0,No
5,6,32,0,0,5,0,0,0,0,0,0,0,396,0,Yes
10,4,11,0,0,3,0,0,0,0,0,0,0,221,0,No
5,3,7,0,0,5,0,0,0,0,0,0,0,809,0,No
5,4,7,0,0,5,0,0,0,0,0,0,0,809,0,No
18,6,30,0,0,5,0,0,0,0,0,0,0,879,0,No
16,8,23,0,0,5,0,0,0,0,0,0,0,704,0,Yes
6,4,6,0,0,5,0,0,0,0,0,0,0,322,0,No
13,7,21,0,1,5,0,0,0,0,0,0,0,830,0,Yes
2,3,2,0,0,4,0,0,0,0,0,0,0,636,0,No
4,0,4,0,0,1,0,0,0,0,0,0,0,221,0,No
2,0,2,0,0,3,0,0,0,0,0,0,0,559,0,No
1,1,2,0,0,3,0,0,0,0,0,0,0,329,0,No
1,1,2,0,0,3,0,0,0,0,0,0,0,329,0,No
1,0,1,0,0,3,0,0,0,0,0,0,0,840,0,No
14,2,33,0,0,3,0,0,0,0,0,0,0,248,0,No
3,0,3,0,0,3,0,0,0,0,0,0,0,598,0,No
1,0,1,0,0,3,0,0,0,0,0,0,0,788,0,No
2,1,2,0,0,3,0,0,0,0,0,0,0,396,0,No
2,0,3,0,0,3,0,0,0,0,0,0,0,788,0,No
4,0,7,0,0,4,0,0,0,0,0,0,0,788,0,No
1,0,1,0,0,3,0,0,0,0,0,0,0,840,0,No
0,0,0,0,0,3,0,0,0,0,0,0,0,840,0,No
8,0,14,0,0,4,0,0,0,0,0,0,0,396,0,No
25,0,35,0,0,1,0,0,0,0,0,0,0,209,0,No
12,0,20,0,0,1,0,0,0,0,0,0,0,201,0,No
1,4,9,0,0,3,0,0,0,0,0,0,0,242,0,No
13,3,18,0,0,5,0,0,0,0,0,0,0,833,0,No
2,0,2,0,0,3,0,0,0,0,0,0,0,840,0,No
25,0,42,0,0,4,0,0,0,0,0,0,0,833,0,No
6,3,12,0,0,4,0,0,0,0,0,0,0,853,0,No
8,0,12,0,0,4,0,0,0,0,0,0,0,234,0,No
8,0,10,0,0,4,0,0,0,0,0,0,0,514,0,No
0,1,0,0,0,4,0,0,0,0,0,0,0,833,0,No
4,1,4,0,0,3,0,0,0,0,0,0,0,868,0,No
23,5,31,0,0,4,0,0,0,0,0,0,0,336,0,No
16,1,17,0,0,4,0,0,0,0,0,0,0,329,0,No
0,1,0,0,0,3,0,0,0,0,0,0,0,833,0,No
6,4,6,0,0,3,0,0,0,0,0,0,0,409,0,No
14,5,14,0,0,4,0,0,0,0,0,0,0,717,0,No
6,1,8,0,0,3,0,0,0,0,0,0,0,234,0,No
5,2,7,0,0,3,0,0,0,0,0,0,0,234,0,No
4,1,4,0,0,3,0,0,0,0,0,0,0,440,0,No
15,2,15,0,0,3,0,0,0,0,0,0,0,824,0,No
0,1,0,0,0,3,0,0,0,0,0,0,0,833,0,No
4,0,4,0,0,3,0,0,0,0,0,0,0,879,0,No
6,2,6,0,0,3,0,0,0,0,0,0,0,868,0,No
5,0,10,0,0,3,0,0,0,0,0,0,0,717,0,No
4,0,4,0,0,3,0,0,0,0,0,0,0,717,0,No
8,4,11,0,0,3,0,0,0,0,0,0,0,326,0,No
11,4,19,0,0,4,0,0,0,0,0,0,0,833,0,No
5,3,7,0,0,4,0,0,0,0,0,0,0,675,0,No
3,2,4,0,0,4,0,0,0,0,0,0,0,879,0,No
4,3,6,0,0,4,0,0,0,0,0,0,0,833,0,No
0,1,0,0,0,3,0,0,0,0,0,0,0,833,0,No
0,1,0,0,0,3,0,0,0,0,0,0,0,833,0,No
5,3,7,0,0,5,0,0,0,0,0,0,0,833,0,No
0,1,0,0,0,3,0,0,0,0,0,0,0,833,0,No
0,0,0,0,0,3,0,0,0,0,0,0,0,840,0,No
11,4,19,0,0,4,0,0,0,0,0,0,0,833,0,No
5,3,7,0,0,4,0,0,0,0,0,0,0,675,0,No
3,2,4,0,0,4,0,0,0,0,0,0,0,879,0,No
4,3,6,0,0,4,0,0,0,0,0,0,0,833,0,No
0,1,0,0,0,3,0,0,0,0,0,0,0,833,0,No
0,1,0,0,0,3,0,0,0,0,0,0,0,833,0,No
5,3,7,0,0,5,0,0,0,0,0,0,0,833,0,No
0,1,0,0,0,3,0,0,0,0,0,0,0,833,0,No
39,11,72,0,0,4,0,0,0,0,0,0,0,833,0,No
11,4,19,0,0,4,0,0,0,0,0,0,0,833,0,No
5,3,7,0,0,4,0,0,0,0,0,0,0,675,0,No
3,2,4,0,0,4,0,0,0,0,0,0,0,879,0,No
4,3,6,0,0,4,0,0,0,0,0,0,0,833,0,No
0,2,0,0,0,3,0,0,0,0,0,0,0,833,0,No
0,2,0,0,0,3,0,0,0,0,0,0,0,833,0,No
5,3,8,0,0,5,0,0,0,0,0,0,0,833,0,No
0,2,0,0,0,3,0,0,0,0,0,0,0,833,0,No
5,2,5,0,0,3,0,0,0,0,0,0,0,879,0,No
5,2,5,0,0,3,0,0,0,0,0,0,0,879,0,No
5,2,5,0,0,3,0,0,0,0,0,0,0,879,0,No
4,2,4,0,0,3,0,0,0,0,0,0,0,879,0,No
4,1,4,0,0,3,0,0,0,0,0,0,0,840,0,No
5,2,5,0,0,3,0,0,0,0,0,0,0,879,0,No
5,4,5,0,0,3,0,0,0,0,0,0,0,879,0,No
6,3,6,0,0,3,0,0,0,0,0,0,0,879,0,No
5,3,5,0,0,3,0,0,0,0,0,0,0,879,0,No
5,4,5,0,0,3,0,0,0,0,0,0,0,879,0,No
1,0,1,0,0,3,0,0,0,0,0,0,0,840,0,No
4,2,4,0,0,3,0,0,0,0,0,0,0,440,0,No
8,5,8,0,0,3,0,0,0,0,0,0,0,840,0,No
7,2,7,0,0,3,0,0,0,0,0,0,0,879,0,No
7,3,7,0,0,3,0,0,0,0,0,0,0,879,0,No
8,4,8,0,0,3,0,0,0,0,0,0,0,879,0,No
5,4,5,0,0,3,0,0,0,0,0,0,0,879,0,No
12,5,12,0,0,3,0,0,0,0,0,0,0,879,0,No
8,3,8,0,0,3,0,0,0,0,0,0,0,879,0,No
13,5,13,0,0,3,0,0,0,0,0,0,0,879,0,No
4,2,4,0,0,3,0,0,0,0,0,0,0,440,0,No
4,2,4,0,0,5,0,0,0,0,0,0,0,879,0,No
5,2,5,0,0,3,0,0,0,0,0,0,0,879,0,No
5,4,5,0,0,3,0,0,0,0,0,0,0,879,0,No
8,2,12,0,0,3,0,0,0,0,0,0,0,879,0,No
5,2,7,0,0,3,0,0,0,0,0,0,0,868,0,No
5,2,7,0,0,3,0,0,0,0,0,0,0,868,0,No
4,5,9,0,0,3,0,0,0,0,0,0,0,868,0,No
5,2,7,0,0,3,0,0,0,0,0,0,0,868,0,No
5,6,8,0,0,3,0,0,0,0,0,0,0,868,0,No
6,5,9,0,0,3,0,0,0,0,0,0,0,868,0,No
5,4,8,0,0,3,0,0,0,0,0,0,0,242,0,No
5,6,8,0,0,3,0,0,0,0,0,0,0,803,0,No
4,3,4,0,0,3,0,0,0,0,0,0,0,336,0,No
8,6,14,0,0,3,0,0,0,0,0,0,0,409,0,No
7,3,10,0,0,3,0,0,0,0,0,0,0,234,0,No
8,4,12,0,0,3,0,0,0,0,0,0,0,234,0,No
5,6,8,0,0,3,0,0,0,0,0,0,0,868,0,No
13,8,23,0,0,4,0,0,0,0,0,0,0,868,0,No
9,7,14,0,0,3,0,0,0,0,0,0,0,868,0,No
4,3,4,0,0,3,0,0,0,0,0,0,0,336,0,No
5,2,7,0,0,3,0,0,0,0,0,0,0,868,0,No
5,6,8,0,0,3,0,0,0,0,0,0,0,868,0,No
3,3,16,0,0,3,0,0,0,0,0,0,0,850,0,Yes
1,2,2,0,0,3,0,0,0,0,0,0,0,879,0,No
1,3,6,0,0,4,0,0,0,0,0,0,0,879,0,No
1,2,2,0,0,3,0,0,0,0,0,0,0,850,0,No
0,1,0,0,0,3,0,0,0,0,0,0,0,879,0,No
0,0,0,0,0,3,0,0,0,0,0,0,0,879,0,No
1,1,1,0,0,3,0,0,0,0,0,0,0,850,0,No
0,0,0,0,0,3,0,0,0,0,0,0,0,675,0,No
0,0,0,0,0,3,0,0,0,0,0,0,0,675,0,No
0,0,0,0,0,3,0,0,0,0,0,0,0,675,0,No
1,0,2,0,0,3,0,0,0,0,0,0,0,675,0,No
0,0,0,0,0,3,0,0,0,0,0,0,0,675,0,No
4,1,7,0,0,3,0,0,0,0,0,0,0,675,0,No
0,0,0,0,0,3,0,0,0,0,0,0,0,440,0,No
0,0,0,0,0,3,0,0,0,0,0,0,0,675,0,No
0,0,0,0,0,3,0,0,0,0,0,0,0,440,0,No
0,0,0,0,0,3,0,0,0,0,0,0,0,440,0,No
0,0,0,0,0,3,0,0,0,0,0,0,0,440,0,No
0,0,0,0,0,3,0,0,0,0,0,0,0,675,0,No
0,0,0,0,0,3,0,0,0,0,0,0,0,675,0,No
0,0,0,0,0,3,0,0,0,0,0,0,0,440,0,No
0,0,0,0,0,3,0,0,0,0,0,0,0,675,0,No
0,0,0,0,0,3,0,0,0,0,0,0,0,675,0,No
0,0,0,0,0,3,0,0,0,0,0,0,0,840,0,No
12,2,58,0,0,3,0,0,0,0,0,0,0,396,0,No
0,0,0,0,0,3,0,0,0,0,0,0,0,840,0,No
0,0,0,0,0,3,0,0,0,0,0,0,0,840,0,No
12,1,32,0,1,4,0,0,0,0,0,0,0,794,0,No
1,0,1,0,0,3,0,0,0,0,0,0,0,879,0,No
0,0,0,0,0,3,0,0,0,0,0,0,0,840,0,No
5,3,6,0,0,3,0,0,0,0,0,0,0,440,0,No
0,0,0,0,0,3,0,0,0,0,0,0,0,440,0,No
2,1,2,0,0,4,0,0,0,0,0,0,0,234,0,No
0,1,0,0,0,3,0,0,0,0,0,0,0,440,0,No
1,1,10,0,0,1,0,0,0,0,0,0,0,209,0,No
2,7,3,0,0,3,0,0,0,0,0,0,0,658,0,No
5,9,9,0,0,4,0,0,0,0,0,0,0,831,0,No
0,0,0,0,0,3,0,0,0,0,0,0,0,840,0,No
8,21,20,0,0,5,0,0,0,0,0,0,0,817,0,No
8,13,27,0,0,4,0,0,0,0,0,0,0,808,0,No
5,9,9,0,0,4,0,0,0,0,0,0,0,836,0,No
1,0,1,0,0,3,0,0,0,0,0,0,0,879,0,No
9,12,16,0,0,5,0,0,0,0,0,0,0,326,0,No
5,9,9,0,0,5,0,0,0,0,0,0,0,514,0,No
3,7,3,0,0,3,0,0,0,0,0,0,0,329,0,Yes
2,2,2,0,0,3,0,0,0,0,0,0,0,804,0,No
3,9,22,0,0,4,0,0,0,0,0,0,0,819,0,No
4,7,7,0,0,3,0,0,0,0,0,0,0,831,0,No
3,2,3,0,0,4,0,0,0,0,0,0,0,336,0,No
4,10,9,0,0,3,0,0,0,0,0,0,0,831,0,No
8,0,10,0,0,3,0,0,0,0,0,0,0,846,0,No
6,7,10,0,0,4,0,0,0,0,0,0,0,326,0,No
0,0,0,0,0,3,0,0,0,0,0,0,0,840,0,No
3,6,9,0,0,3,0,0,0,0,0,0,0,655,0,No
2,0,2,0,0,3,0,0,0,0,0,0,0,879,0,No
3,3,18,0,0,5,0,0,0,0,0,0,0,374,0,No
2,0,8,0,0,3,0,0,0,0,0,0,0,242,0,No
4,10,20,0,0,3,0,0,0,0,0,0,0,440,0,No
14,0,18,0,0,4,0,0,0,0,0,0,0,263,0,No
12,6,12,0,0,4,0,0,0,0,0,0,0,347,0,Yes
0,0,0,0,0,3,0,0,0,0,0,0,0,440,0,No
9,1,9,0,0,3,0,0,0,0,0,0,0,329,0,No
2,3,2,0,0,3,0,0,0,0,0,0,0,353,0,No
1,1,1,0,0,4,0,0,0,0,0,0,0,440,0,No
1,3,1,0,0,4,0,0,0,0,0,0,0,353,0,No
1,2,2,0,0,4,0,0,0,0,0,0,0,353,0,No
1,2,1,0,0,3,0,0,0,0,0,0,0,353,0,No
1,1,1,0,0,3,0,0,0,0,0,0,0,440,0,No
1,0,1,0,0,3,0,0,0,0,0,0,0,440,0,No
4,0,4,0,0,3,0,0,0,0,0,0,0,440,0,No
13,4,16,0,0,4,0,0,0,0,0,0,0,341,0,No
1,4,1,0,0,4,0,0,0,0,0,0,0,353,0,No
0,0,0,0,0,3,0,0,0,0,0,0,0,840,0,No
1,0,16,0,0,3,0,0,0,0,0,0,0,258,0,No
0,1,0,0,0,3,0,0,0,0,0,0,0,509,0,No
0,0,0,0,0,3,0,0,0,0,0,0,0,509,0,No
3,0,3,0,0,3,0,0,0,0,0,0,0,948,0,No
1,0,2,0,0,4,0,0,0,0,0,0,0,948,0,No
2,0,2,0,0,4,0,0,0,0,0,0,0,324,0,No
35,1,42,0,0,4,0,0,0,0,0,0,0,864,0,No
11,1,12,0,0,3,0,0,0,0,0,0,0,864,0,No
19,0,28,20,1,3,1,1,-18,0,2,4,4,884,0,No
13,0,17,0,0,4,0,0,0,0,0,0,0,864,0,No
2,1,2,0,0,3,0,0,0,0,0,0,0,509,0,No
1,0,1,0,0,3,0,0,0,0,0,0,0,303,0,No
12,1,14,0,0,1,0,0,0,0,0,0,0,278,0,No
10,3,10,0,0,3,0,0,0,0,0,0,0,303,0,No
7,1,11,0,0,3,0,0,0,0,0,0,0,795,0,No
3,1,3,0,0,3,0,0,0,0,0,0,0,948,0,No
16,0,20,0,0,4,0,0,0,0,0,0,0,915,0,No
10,1,14,0,0,3,0,0,0,0,0,0,0,786,0,No
2,2,2,0,0,3,0,0,0,0,0,0,0,948,0,No
4,1,4,0,0,3,0,0,0,0,0,0,0,948,0,No
12,2,12,0,0,3,0,0,0,0,0,0,0,886,0,No
19,3,25,0,0,4,0,0,0,0,0,0,0,888,0,No
5,1,7,0,0,4,0,0,0,0,0,0,0,324,0,No
4,1,4,0,0,3,0,0,0,0,0,0,0,905,0,No
4,2,4,0,0,3,0,0,0,0,0,0,0,948,0,No
24,4,27,0,0,4,0,0,0,0,0,0,0,405,0,No
16,1,17,0,1,3,0,0,0,0,0,0,0,398,0,No
2,2,2,0,0,3,0,0,0,0,0,0,0,948,0,No
5,2,5,0,0,3,0,0,0,0,0,0,0,948,0,No
8,2,8,0,0,4,0,0,0,0,0,0,0,300,0,No
14,2,14,0,0,3,0,0,0,0,0,0,0,786,0,No
3,1,3,0,0,3,0,0,0,0,0,0,0,509,0,No
24,2,32,0,0,3,0,0,0,0,0,0,0,303,0,No
36,4,36,0,0,3,0,0,0,0,0,0,0,884,0,No
25,0,31,0,0,3,0,0,0,0,0,0,0,877,0,No
8,0,12,0,0,3,0,0,0,0,0,0,0,948,0,No
14,2,14,0,0,3,0,0,0,0,0,0,0,893,0,No
20,2,21,0,0,4,0,0,0,0,0,0,0,948,0,No
2,2,2,0,0,3,0,0,0,0,0,0,0,948,0,No
16,0,16,0,0,3,0,0,0,0,0,0,0,509,0,No
2,0,2,0,0,3,0,0,0,0,0,0,0,786,0,No
12,1,16,0,0,3,0,0,0,0,0,0,0,786,0,No
10,3,13,0,0,3,0,0,0,0,0,0,0,395,0,No
2,1,2,0,0,3,0,0,0,0,0,0,0,948,0,No
4,1,4,0,0,3,0,0,0,0,0,0,0,509,0,No
20,2,21,0,0,3,0,0,0,0,0,0,0,411,0,No
10,11,52,34,2,5,18,15,2,2,5,12,12,391,0,No
7,1,13,0,0,3,0,0,0,0,0,0,0,893,0,No
8,1,8,0,0,3,0,0,0,0,0,0,0,893,0,No
20,1,24,0,0,3,0,0,0,0,0,0,0,909,0,No
0,0,0,0,0,3,0,0,0,0,0,0,0,909,0,No
5,3,9,0,0,1,0,0,0,0,0,0,0,262,0,No
0,0,0,0,0,3,0,0,0,0,0,0,0,909,0,No
1,0,1,0,0,3,0,0,0,0,0,0,0,909,0,No
0,0,0,0,0,3,0,0,0,0,0,0,0,909,0,No
48,1,52,0,0,4,0,0,0,0,0,0,0,478,0,No
1,0,1,0,0,3,0,0,0,0,0,0,0,909,0,No
0,0,0,0,0,3,0,0,0,0,0,0,0,909,0,No
0,0,0,0,0,3,0,0,0,0,0,0,0,909,0,No
1,0,2,0,0,3,0,0,0,0,0,0,0,909,0,No
0,0,0,0,0,3,0,0,0,0,0,0,0,909,0,No
0,0,0,0,0,3,0,0,0,0,0,0,0,909,0,No
4,1,6,0,0,4,0,0,0,0,0,0,0,909,0,No
2,0,9,0,0,3,0,0,0,0,0,0,0,311,0,No
1,0,1,0,0,3,0,0,0,0,0,0,0,909,0,No
0,0,0,0,0,3,0,0,0,0,0,0,0,909,0,No
0,0,0,0,0,3,0,0,0,0,0,0,0,509,0,No
0,0,0,0,0,3,0,0,0,0,0,0,0,509,0,No
0,0,0,0,0,3,0,0,0,0,0,0,0,909,0,No
6,12,16,0,0,4,0,0,0,0,0,0,0,909,0,No
11,1,13,0,0,5,0,0,0,0,0,0,0,909,0,No
0,0,0,0,0,3,0,0,0,0,0,0,0,909,0,No
7,2,16,0,0,2,0,0,0,0,0,0,0,290,0,No
2,0,2,0,0,3,0,0,0,0,0,0,0,509,0,No
2,0,3,0,0,3,0,0,0,0,0,0,0,948,0,No
2,0,7,0,0,3,0,0,0,0,0,0,0,628,0,No
2,2,5,0,0,3,0,0,0,0,0,0,0,626,0,No
4,3,8,0,0,3,0,0,0,0,0,0,0,401,0,No
2,0,8,0,0,3,0,0,0,0,0,0,0,737,0,No
1,1,1,0,0,3,0,0,0,0,0,0,0,909,0,No
2,7,4,0,0,3,0,0,0,0,0,0,0,303,0,No
0,0,0,0,0,3,0,0,0,0,0,0,0,909,0,No
0,0,0,0,0,3,0,0,0,0,0,0,0,509,0,No
0,0,0,0,0,3,0,0,0,0,0,0,0,909,0,No
0,3,0,0,0,4,0,0,0,0,0,0,0,398,0,No
0,2,0,0,0,3,0,0,0,0,0,0,0,578,0,No
3,2,3,0,0,1,0,0,0,0,0,0,0,290,0,No
1,2,1,0,0,4,0,0,0,0,0,0,0,508,0,No
2,6,3,0,0,3,0,0,0,0,0,0,0,508,0,No
11,9,16,0,0,5,0,0,0,0,0,0,0,909,0,No
2,3,2,0,0,3,0,0,0,0,0,0,0,578,0,No
0,3,0,0,0,3,0,0,0,0,0,0,0,303,0,No
8,7,12,0,0,4,0,0,0,0,0,0,0,576,0,No
1,0,1,0,0,3,0,0,0,0,0,0,0,909,0,No
16,14,61,0,0,6,0,0,0,0,0,0,0,303,0,Yes
1,5,2,0,0,3,0,0,0,0,0,0,0,405,0,No
9,9,15,0,0,3,0,0,0,0,0,0,0,576,0,No
3,3,3,2,1,4,1,1,0,0,2,4,4,408,0,Yes
5,2,5,0,0,5,0,0,0,0,0,0,0,857,0,No
1,2,2,0,0,4,0,0,0,0,0,0,0,705,0,No
7,6,9,0,0,5,0,0,0,0,0,0,0,857,0,No
7,3,7,0,0,4,0,0,0,0,0,0,0,398,0,No
5,6,32,0,0,5,0,0,0,0,0,0,0,465,0,Yes
10,4,11,0,0,3,0,0,0,0,0,0,0,290,0,No
5,3,7,0,0,5,0,0,0,0,0,0,0,878,0,No
5,4,7,0,0,5,0,0,0,0,0,0,0,878,0,No
18,6,30,0,0,5,0,0,0,0,0,0,0,948,0,No
16,8,23,0,0,5,0,0,0,0,0,0,0,773,0,Yes
5,4,5,4,0,5,0,0,-4,0,2,5,9,391,0,No
15,7,24,17,2,5,16,12,15,11,5,13,17,899,0,No
2,3,2,0,0,4,0,0,0,0,0,0,0,705,0,No
4,0,4,0,0,1,0,0,0,0,0,0,0,290,0,No
2,0,2,0,0,3,0,0,0,0,0,0,0,628,0,No
1,1,2,0,0,3,0,0,0,0,0,0,0,398,0,No
1,1,2,0,0,3,0,0,0,0,0,0,0,398,0,No
1,0,1,0,0,3,0,0,0,0,0,0,0,909,0,No
14,2,33,0,0,3,0,0,0,0,0,0,0,317,0,No
3,0,3,0,0,3,0,0,0,0,0,0,0,667,0,No
1,0,1,0,0,3,0,0,0,0,0,0,0,857,0,No
2,1,2,0,0,3,0,0,0,0,0,0,0,465,0,No
2,0,3,0,0,3,0,0,0,0,0,0,0,857,0,No
4,0,7,0,0,4,0,0,0,0,0,0,0,857,0,No
1,0,1,0,0,3,0,0,0,0,0,0,0,909,0,No
0,0,0,0,0,3,0,0,0,0,0,0,0,909,0,No
8,0,14,0,0,4,0,0,0,0,0,0,0,465,0,No
25,0,35,0,0,1,0,0,0,0,0,0,0,278,0,No
12,0,20,0,0,1,0,0,0,0,0,0,0,270,0,No
1,4,9,7,0,4,5,5,3,3,4,5,5,311,0,No
1,0,1,6,1,3,5,5,4,4,1,6,17,909,0,No
13,3,18,0,0,5,0,0,0,0,0,0,0,902,0,Yes
2,0,2,0,0,3,0,0,0,0,0,0,0,909,0,No
25,0,42,0,0,4,0,0,0,0,0,0,0,902,0,Yes
6,3,12,0,0,4,0,0,0,0,0,0,0,922,0,No
8,0,13,9,1,4,9,9,9,9,1,2,2,303,0,No
8,0,10,0,0,4,0,0,0,0,0,0,0,583,0,No
0,1,0,0,0,4,0,0,0,0,0,0,0,902,0,No
4,1,4,0,0,3,0,0,0,0,0,0,0,937,0,No
23,5,31,2,0,4,1,1,0,0,2,4,18,405,0,No
16,1,17,0,0,4,0,0,0,0,0,0,0,398,0,No
0,1,0,0,0,3,0,0,0,0,0,0,0,902,0,No
6,4,6,0,0,3,0,0,0,0,0,0,0,478,0,Yes
14,5,14,0,0,4,0,0,0,0,0,0,0,786,0,No
6,1,8,0,0,3,0,0,0,0,0,0,0,303,0,No
5,2,7,0,0,3,0,0,0,0,0,0,0,303,0,No
4,1,4,0,0,3,0,0,0,0,0,0,0,509,0,No
15,2,15,0,0,3,0,0,0,0,0,0,0,893,0,No
0,1,0,0,0,3,0,0,0,0,0,0,0,902,0,No
4,0,4,0,0,3,0,0,0,0,0,0,0,948,0,No
6,2,6,0,0,3,0,0,0,0,0,0,0,937,0,No
5,0,10,0,0,3,0,0,0,0,0,0,0,786,0,No
4,0,4,0,0,3,0,0,0,0,0,0,0,786,0,No
8,4,11,0,0,3,0,0,0,0,0,0,0,395,0,No
11,4,19,0,0,4,0,0,0,0,0,0,0,902,0,No
5,3,7,0,0,4,0,0,0,0,0,0,0,744,0,No
3,2,4,0,0,4,0,0,0,0,0,0,0,948,0,No
4,3,6,0,0,4,0,0,0,0,0,0,0,902,0,No
0,1,0,0,0,3,0,0,0,0,0,0,0,902,0,No
0,1,0,0,0,3,0,0,0,0,0,0,0,902,0,No
5,3,7,0,0,5,0,0,0,0,0,0,0,902,0,No
0,1,0,0,0,3,0,0,0,0,0,0,0,902,0,No
0,0,0,0,0,3,0,0,0,0,0,0,0,909,0,No
11,4,19,0,0,4,0,0,0,0,0,0,0,902,0,No
5,3,7,0,0,4,0,0,0,0,0,0,0,744,0,No
3,2,4,0,0,4,0,0,0,0,0,0,0,948,0,No
4,3,6,0,0,4,0,0,0,0,0,0,0,902,0,No
0,1,0,0,0,3,0,0,0,0,0,0,0,902,0,No
0,1,0,0,0,3,0,0,0,0,0,0,0,902,0,No
5,3,7,0,0,5,0,0,0,0,0,0,0,902,0,No
0,1,0,0,0,3,0,0,0,0,0,0,0,902,0,No
39,11,72,0,0,4,0,0,0,0,0,0,0,902,0,No
11,4,19,0,0,4,0,0,0,0,0,0,0,902,0,Yes
5,3,7,0,0,4,0,0,0,0,0,0,0,744,0,No
3,2,4,0,0,4,0,0,0,0,0,0,0,948,0,No
4,3,6,0,0,4,0,0,0,0,0,0,0,902,0,No
0,2,0,0,0,3,0,0,0,0,0,0,0,902,0,No
0,2,0,0,0,3,0,0,0,0,0,0,0,902,0,No
5,3,8,0,0,5,0,0,0,0,0,0,0,902,0,No
0,2,0,0,0,3,0,0,0,0,0,0,0,902,0,No
5,2,5,0,0,3,0,0,0,0,0,0,0,948,0,No
5,2,5,0,0,3,0,0,0,0,0,0,0,948,0,No
5,2,5,0,0,3,0,0,0,0,0,0,0,948,0,No
4,2,4,0,0,3,0,0,0,0,0,0,0,948,0,No
4,1,4,0,0,3,0,0,0,0,0,0,0,909,0,No
5,2,5,0,0,3,0,0,0,0,0,0,0,948,0,No
5,4,5,0,0,3,0,0,0,0,0,0,0,948,0,No
6,3,6,0,0,3,0,0,0,0,0,0,0,948,0,No
5,3,5,0,0,3,0,0,0,0,0,0,0,948,0,No
5,4,5,0,0,3,0,0,0,0,0,0,0,948,0,No
1,0,1,0,0,3,0,0,0,0,0,0,0,909,0,No
4,2,4,0,0,3,0,0,0,0,0,0,0,509,0,No
8,5,8,0,0,3,0,0,0,0,0,0,0,909,0,No
7,2,7,0,0,3,0,0,0,0,0,0,0,948,0,No
7,3,7,0,0,3,0,0,0,0,0,0,0,948,0,No
8,4,8,0,0,3,0,0,0,0,0,0,0,948,0,No
5,4,5,0,0,3,0,0,0,0,0,0,0,948,0,No
12,5,12,0,0,3,0,0,0,0,0,0,0,948,0,No
8,3,8,0,0,3,0,0,0,0,0,0,0,948,0,No
13,5,13,0,0,3,0,0,0,0,0,0,0,948,0,No
4,2,4,0,0,3,0,0,0,0,0,0,0,509,0,No
4,2,4,0,0,5,0,0,0,0,0,0,0,948,0,No
5,2,5,0,0,3,0,0,0,0,0,0,0,948,0,No
5,4,5,0,0,3,0,0,0,0,0,0,0,948,0,No
8,2,12,0,0,3,0,0,0,0,0,0,0,948,0,No
5,2,7,0,0,3,0,0,0,0,0,0,0,937,0,No
5,2,7,0,0,3,0,0,0,0,0,0,0,937,0,No
4,5,9,0,0,3,0,0,0,0,0,0,0,937,0,No
5,2,7,0,0,3,0,0,0,0,0,0,0,937,0,No
5,6,8,0,0,3,0,0,0,0,0,0,0,937,0,No
6,5,9,0,0,3,0,0,0,0,0,0,0,937,0,No
5,4,8,0,0,3,0,0,0,0,0,0,0,311,0,No
5,6,8,0,0,3,0,0,0,0,0,0,0,872,0,No
4,3,4,0,0,3,0,0,0,0,0,0,0,405,0,No
8,6,14,0,0,3,0,0,0,0,0,0,0,478,0,No
7,3,10,0,0,3,0,0,0,0,0,0,0,303,0,No
8,4,12,0,0,3,0,0,0,0,0,0,0,303,0,No
5,6,8,0,0,3,0,0,0,0,0,0,0,937,0,No
13,8,23,0,0,4,0,0,0,0,0,0,0,937,0,No
9,7,14,0,0,3,0,0,0,0,0,0,0,937,0,No
4,3,4,0,0,3,0,0,0,0,0,0,0,405,0,No
5,2,7,0,0,3,0,0,0,0,0,0,0,937,0,No
5,6,8,0,0,3,0,0,0,0,0,0,0,937,0,No
2,2,2,81,1,3,7,7,-67,0,2,8,8,919,0,No
1,2,2,0,0,3,0,0,0,0,0,0,0,948,0,No
1,3,6,0,0,4,0,0,0,0,0,0,0,948,0,No
1,2,2,0,0,3,0,0,0,0,0,0,0,919,0,No
0,1,0,0,0,3,0,0,0,0,0,0,0,948,0,No
0,0,0,0,0,3,0,0,0,0,0,0,0,948,0,No
1,1,1,0,0,3,0,0,0,0,0,0,0,919,0,No
0,0,0,0,0,3,0,0,0,0,0,0,0,744,0,No
0,0,0,0,0,3,0,0,0,0,0,0,0,744,0,No
0,0,0,0,0,3,0,0,0,0,0,0,0,744,0,No
1,0,2,0,0,3,0,0,0,0,0,0,0,744,0,No
0,0,0,0,0,3,0,0,0,0,0,0,0,744,0,No
4,1,7,0,0,3,0,0,0,0,0,0,0,744,0,No
0,0,0,0,0,3,0,0,0,0,0,0,0,509,0,No
0,0,0,0,0,3,0,0,0,0,0,0,0,744,0,No
0,0,0,0,0,3,0,0,0,0,0,0,0,509,0,No
0,0,0,0,0,3,0,0,0,0,0,0,0,509,0,No
0,0,0,0,0,3,0,0,0,0,0,0,0,509,0,No
0,0,0,0,0,3,0,0,0,0,0,0,0,744,0,No
0,0,0,0,0,3,0,0,0,0,0,0,0,744,0,No
0,0,0,0,0,3,0,0,0,0,0,0,0,509,0,No
0,0,0,0,0,3,0,0,0,0,0,0,0,744,0,No
0,0,0,0,0,3,0,0,0,0,0,0,0,744,0,No
0,0,0,0,0,3,0,0,0,0,0,0,0,909,0,No
12,2,58,0,0,3,0,0,0,0,0,0,0,465,0,No
0,0,0,0,0,3,0,0,0,0,0,0,0,909,0,No
0,0,0,0,0,3,0,0,0,0,0,0,0,909,0,No
12,1,32,0,1,4,0,0,0,0,0,0,0,863,0,No
1,0,1,0,0,3,0,0,0,0,0,0,0,948,0,No
0,0,0,0,0,3,0,0,0,0,0,0,0,909,0,No
5,3,6,0,0,3,0,0,0,0,0,0,0,509,0,No
0,0,0,0,0,3,0,0,0,0,0,0,0,509,0,No
2,1,2,0,0,4,0,0,0,0,0,0,0,303,0,No
0,1,0,0,0,3,0,0,0,0,0,0,0,509,0,No
1,1,10,0,0,1,0,0,0,0,0,0,0,278,0,No
2,7,3,0,0,3,0,0,0,0,0,0,0,727,0,No
5,9,9,0,0,4,0,0,0,0,0,0,0,900,0,No
0,0,0,0,0,3,0,0,0,0,0,0,0,909,0,No
8,21,20,0,0,5,0,0,0,0,0,0,0,886,0,No
8,13,27,0,0,4,0,0,0,0,0,0,0,877,0,No
5,9,9,0,0,4,0,0,0,0,0,0,0,905,0,No
1,0,1,0,0,3,0,0,0,0,0,0,0,948,0,No
8,12,15,90,0,5,37,37,-16,0,2,5,9,395,0,No
5,9,9,0,0,5,0,0,0,0,0,0,0,583,0,No
3,7,3,16,1,3,7,7,-2,0,2,4,4,398,0,No
2,2,2,0,0,3,0,0,0,0,0,0,0,873,0,No
3,9,22,0,0,4,0,0,0,0,0,0,0,888,0,No
4,7,7,0,0,3,0,0,0,0,0,0,0,900,0,No
3,2,3,0,0,4,0,0,0,0,0,0,0,405,0,No
4,10,9,0,0,3,0,0,0,0,0,0,0,900,0,No
8,0,10,0,0,3,0,0,0,0,0,0,0,915,0,No
6,7,10,24,0,4,10,10,-4,0,2,5,9,395,0,No
0,0,0,0,0,3,0,0,0,0,0,0,0,909,0,No
3,6,9,0,0,3,0,0,0,0,0,0,0,724,0,No
2,0,2,0,0,3,0,0,0,0,0,0,0,948,0,No
3,3,18,0,0,5,0,0,0,0,0,0,0,443,0,No
2,0,8,0,0,3,0,0,0,0,0,0,0,311,0,No
4,10,20,0,0,3,0,0,0,0,0,0,0,509,0,No
14,0,18,0,0,4,0,0,0,0,0,0,0,332,0,No
13,7,13,12,1,4,9,9,6,6,1,6,17,416,0,No
15,8,19,17,1,5,8,8,-1,0,1,6,17,433,0,Yes
0,0,0,0,0,3,0,0,0,0,0,0,0,509,0,No
9,1,9,0,0,3,0,0,0,0,0,0,0,398,0,No
2,3,2,0,0,3,0,0,0,0,0,0,0,422,0,No
1,1,1,0,0,4,0,0,0,0,0,0,0,509,0,No
1,3,1,0,0,4,0,0,0,0,0,0,0,422,0,No
1,2,2,0,0,4,0,0,0,0,0,0,0,422,0,No
1,2,1,0,0,3,0,0,0,0,0,0,0,422,0,No
1,1,1,0,0,3,0,0,0,0,0,0,0,509,0,No
1,0,1,0,0,3,0,0,0,0,0,0,0,509,0,No
4,0,4,0,0,3,0,0,0,0,0,0,0,509,0,No
13,4,16,0,0,4,0,0,0,0,0,0,0,410,0,No
1,4,1,0,0,4,0,0,0,0,0,0,0,422,0,No
0,0,0,0,0,3,0,0,0,0,0,0,0,909,0,No
1,0,16,0,0,3,0,0,0,0,0,0,0,327,0,No
0,1,0,0,0,3,0,0,0,0,0,0,0,553,0,No
0,0,0,0,0,3,0,0,0,0,0,0,0,553,0,No
3,0,3,0,0,3,0,0,0,0,0,0,0,992,0,No
1,0,2,0,0,4,0,0,0,0,0,0,0,992,0,No
2,0,2,0,0,4,0,0,0,0,0,0,0,368,0,No
35,1,42,0,0,4,0,0,0,0,0,0,0,908,0,No
11,1,12,0,0,3,0,0,0,0,0,0,0,908,0,No
19,0,28,0,1,3,0,0,0,0,0,0,0,928,0,No
13,0,17,0,0,4,0,0,0,0,0,0,0,908,0,No
2,1,2,0,0,3,0,0,0,0,0,0,0,553,0,No
1,0,1,0,0,3,0,0,0,0,0,0,0,347,0,No
12,1,14,0,0,1,0,0,0,0,0,0,0,322,0,No
10,3,10,0,0,3,0,0,0,0,0,0,0,347,0,No
7,1,11,0,0,3,0,0,0,0,0,0,0,839,0,No
3,1,3,0,0,3,0,0,0,0,0,0,0,992,0,No
16,0,20,0,0,4,0,0,0,0,0,0,0,959,0,No
10,1,14,0,0,3,0,0,0,0,0,0,0,830,0,No
2,2,2,0,0,3,0,0,0,0,0,0,0,992,0,No
4,1,4,0,0,3,0,0,0,0,0,0,0,992,0,No
12,2,12,0,0,3,0,0,0,0,0,0,0,930,0,No
19,3,25,0,0,4,0,0,0,0,0,0,0,932,0,No
5,1,7,0,0,4,0,0,0,0,0,0,0,368,0,No
4,1,4,0,0,3,0,0,0,0,0,0,0,949,0,No
4,2,4,0,0,3,0,0,0,0,0,0,0,992,0,No
24,4,27,0,0,4,0,0,0,0,0,0,0,449,0,No
16,1,17,0,1,3,0,0,0,0,0,0,0,442,0,No
2,2,2,0,0,3,0,0,0,0,0,0,0,992,0,No
5,2,5,0,0,3,0,0,0,0,0,0,0,992,0,No
8,2,8,0,0,4,0,0,0,0,0,0,0,344,0,No
14,2,14,0,0,3,0,0,0,0,0,0,0,830,0,No
3,1,3,0,0,3,0,0,0,0,0,0,0,553,0,No
24,2,32,0,0,3,0,0,0,0,0,0,0,347,0,No
36,4,36,0,0,3,0,0,0,0,0,0,0,928,0,No
25,0,31,0,0,3,0,0,0,0,0,0,0,921,0,No
8,0,12,0,0,3,0,0,0,0,0,0,0,992,0,No
14,2,14,0,0,3,0,0,0,0,0,0,0,937,0,No
20,2,21,0,0,4,0,0,0,0,0,0,0,992,0,No
2,2,2,0,0,3,0,0,0,0,0,0,0,992,0,No
16,0,16,0,0,3,0,0,0,0,0,0,0,553,0,No
2,0,2,0,0,3,0,0,0,0,0,0,0,830,0,No
12,1,16,0,0,3,0,0,0,0,0,0,0,830,0,No
10,3,13,0,0,3,0,0,0,0,0,0,0,439,0,No
2,1,2,0,0,3,0,0,0,0,0,0,0,992,0,No
4,1,4,0,0,3,0,0,0,0,0,0,0,553,0,No
20,2,21,0,0,3,0,0,0,0,0,0,0,455,0,No
10,11,52,0,2,5,0,0,0,0,0,0,0,435,0,No
7,1,13,0,0,3,0,0,0,0,0,0,0,937,0,No
8,1,8,0,0,3,0,0,0,0,0,0,0,937,0,No
20,1,24,0,0,3,0,0,0,0,0,0,0,953,0,No
0,0,0,0,0,3,0,0,0,0,0,0,0,953,0,No
5,3,9,0,0,1,0,0,0,0,0,0,0,306,0,No
0,0,0,0,0,3,0,0,0,0,0,0,0,953,0,No
1,0,1,0,0,3,0,0,0,0,0,0,0,953,0,No
0,0,0,0,0,3,0,0,0,0,0,0,0,953,0,No
48,1,52,0,0,4,0,0,0,0,0,0,0,522,0,No
1,0,1,0,0,3,0,0,0,0,0,0,0,953,0,No
0,0,0,0,0,3,0,0,0,0,0,0,0,953,0,No
0,0,0,0,0,3,0,0,0,0,0,0,0,953,0,No
1,0,2,0,0,3,0,0,0,0,0,0,0,953,0,No
0,0,0,0,0,3,0,0,0,0,0,0,0,953,0,No
0,0,0,0,0,3,0,0,0,0,0,0,0,953,0,No
4,1,6,0,0,4,0,0,0,0,0,0,0,953,0,No
2,0,9,0,0,3,0,0,0,0,0,0,0,355,0,No
1,0,1,0,0,3,0,0,0,0,0,0,0,953,0,No
0,0,0,0,0,3,0,0,0,0,0,0,0,953,0,No
0,0,0,0,0,3,0,0,0,0,0,0,0,553,0,No
0,0,0,0,0,3,0,0,0,0,0,0,0,553,0,No
0,0,0,0,0,3,0,0,0,0,0,0,0,953,0,No
6,12,16,0,0,4,0,0,0,0,0,0,0,953,0,No
11,1,13,0,0,5,0,0,0,0,0,0,0,953,0,No
0,0,0,0,0,3,0,0,0,0,0,0,0,953,0,No
7,2,16,0,0,2,0,0,0,0,0,0,0,334,0,No
2,0,2,0,0,3,0,0,0,0,0,0,0,553,0,No
2,0,3,0,0,3,0,0,0,0,0,0,0,992,0,No
2,0,7,0,0,3,0,0,0,0,0,0,0,672,0,Yes
2,2,5,0,0,3,0,0,0,0,0,0,0,670,0,Yes
4,3,8,0,0,3,0,0,0,0,0,0,0,445,0,Yes
2,0,8,0,0,3,0,0,0,0,0,0,0,781,0,No
1,1,1,0,0,3,0,0,0,0,0,0,0,953,0,Yes
2,7,4,0,0,3,0,0,0,0,0,0,0,347,0,Yes
0,0,0,0,0,3,0,0,0,0,0,0,0,953,0,No
0,0,0,0,0,3,0,0,0,0,0,0,0,553,0,No
0,0,0,0,0,3,0,0,0,0,0,0,0,953,0,No
0,3,0,0,0,4,0,0,0,0,0,0,0,442,0,Yes
0,2,0,0,0,3,0,0,0,0,0,0,0,622,0,Yes
3,2,3,0,0,1,0,0,0,0,0,0,0,334,0,No
1,2,1,0,0,4,0,0,0,0,0,0,0,552,0,No
2,6,3,0,0,3,0,0,0,0,0,0,0,552,0,Yes
11,9,16,2,0,5,1,1,0,0,1,1,1,953,0,Yes
2,3,2,0,0,3,0,0,0,0,0,0,0,622,0,No
0,3,0,0,0,3,0,0,0,0,0,0,0,347,0,No
8,7,12,0,0,4,0,0,0,0,0,0,0,620,0,Yes
1,0,1,0,0,3,0,0,0,0,0,0,0,953,0,No
16,14,61,0,0,6,0,0,0,0,0,0,0,347,0,Yes
1,5,2,0,0,3,0,0,0,0,0,0,0,449,0,No
9,9,15,0,0,3,0,0,0,0,0,0,0,620,0,Yes
3,3,3,0,1,4,0,0,0,0,0,0,0,452,0,Yes
5,2,5,0,0,5,0,0,0,0,0,0,0,901,0,No
1,2,2,0,0,4,0,0,0,0,0,0,0,749,0,No
7,6,9,0,0,5,0,0,0,0,0,0,0,901,0,No
7,3,7,0,0,4,0,0,0,0,0,0,0,442,0,No
5,6,33,30,0,5,16,16,2,15,2,3,5,509,0,Yes
10,4,11,0,0,3,0,0,0,0,0,0,0,334,0,No
5,3,7,0,0,5,0,0,0,0,0,0,0,922,0,No
5,4,7,0,0,5,0,0,0,0,0,0,0,922,0,No
18,6,30,0,0,5,0,0,0,0,0,0,0,992,0,No
16,8,23,0,0,5,0,0,0,0,0,0,0,817,0,Yes
5,4,5,0,0,5,0,0,0,0,0,0,0,435,0,No
15,7,24,0,2,5,0,0,0,0,0,0,0,943,0,No
2,3,2,0,0,4,0,0,0,0,0,0,0,749,0,No
4,0,4,0,0,1,0,0,0,0,0,0,0,334,0,No
2,0,2,0,0,3,0,0,0,0,0,0,0,672,0,Yes
1,1,2,0,0,3,0,0,0,0,0,0,0,442,0,No
1,1,2,0,0,3,0,0,0,0,0,0,0,442,0,No
1,0,1,0,0,3,0,0,0,0,0,0,0,953,0,No
14,2,33,0,0,3,0,0,0,0,0,0,0,361,0,Yes
3,0,3,0,0,3,0,0,0,0,0,0,0,711,0,No
1,0,1,0,0,3,0,0,0,0,0,0,0,901,0,No
2,1,2,0,0,3,0,0,0,0,0,0,0,509,0,Yes
2,0,3,0,0,3,0,0,0,0,0,0,0,901,0,No
4,0,7,0,0,4,0,0,0,0,0,0,0,901,0,No
1,0,1,0,0,3,0,0,0,0,0,0,0,953,0,No
0,0,0,0,0,3,0,0,0,0,0,0,0,953,0,No
8,0,14,0,0,4,0,0,0,0,0,0,0,509,0,No
25,0,35,0,0,1,0,0,0,0,0,0,0,322,0,Yes
12,0,20,0,0,1,0,0,0,0,0,0,0,314,0,No
1,4,9,0,0,4,0,0,0,0,0,0,0,355,0,No
1,0,1,0,1,3,0,0,0,0,0,0,0,953,0,No
13,3,18,6,1,5,3,3,0,0,1,7,10,946,0,No
2,0,2,0,0,3,0,0,0,0,0,0,0,953,0,No
25,0,42,81,2,4,38,37,-5,22,2,11,15,946,0,No
6,3,12,0,0,4,0,0,0,0,0,0,0,966,0,No
8,0,13,0,1,4,0,0,0,0,0,0,0,347,0,No
8,0,10,0,0,4,0,0,0,0,0,0,0,627,0,No
0,1,0,0,0,4,0,0,0,0,0,0,0,946,0,No
4,1,4,0,0,3,0,0,0,0,0,0,0,981,0,No
23,5,31,0,0,4,0,0,0,0,0,0,0,449,0,No
16,1,17,0,0,4,0,0,0,0,0,0,0,442,0,No
0,1,0,0,0,3,0,0,0,0,0,0,0,946,0,No
6,4,6,0,0,3,0,0,0,0,0,0,0,522,0,No
14,5,14,0,0,4,0,0,0,0,0,0,0,830,0,No
6,1,8,0,0,3,0,0,0,0,0,0,0,347,0,No
5,2,7,0,0,3,0,0,0,0,0,0,0,347,0,No
4,1,4,0,0,3,0,0,0,0,0,0,0,553,0,No
15,2,15,0,0,3,0,0,0,0,0,0,0,937,0,No
0,1,0,0,0,3,0,0,0,0,0,0,0,946,0,No
4,0,4,0,0,3,0,0,0,0,0,0,0,992,0,No
6,2,6,0,0,3,0,0,0,0,0,0,0,981,0,No
5,0,10,0,0,3,0,0,0,0,0,0,0,830,0,No
4,0,4,0,0,3,0,0,0,0,0,0,0,830,0,No
8,4,11,0,0,3,0,0,0,0,0,0,0,439,0,No
11,4,19,0,0,4,0,0,0,0,0,0,0,946,0,No
5,3,7,0,0,4,0,0,0,0,0,0,0,788,0,No
3,2,4,0,0,4,0,0,0,0,0,0,0,992,0,No
4,3,6,0,0,4,0,0,0,0,0,0,0,946,0,No
0,1,0,0,0,3,0,0,0,0,0,0,0,946,0,No
0,1,0,0,0,3,0,0,0,0,0,0,0,946,0,No
5,3,7,0,0,5,0,0,0,0,0,0,0,946,0,No
0,1,0,0,0,3,0,0,0,0,0,0,0,946,0,No
0,0,0,0,0,3,0,0,0,0,0,0,0,953,0,No
11,4,19,0,0,4,0,0,0,0,0,0,0,946,0,No
5,3,7,0,0,4,0,0,0,0,0,0,0,788,0,No
3,2,4,0,0,4,0,0,0,0,0,0,0,992,0,No
4,3,6,0,0,4,0,0,0,0,0,0,0,946,0,No
0,1,0,0,0,3,0,0,0,0,0,0,0,946,0,No
0,1,0,0,0,3,0,0,0,0,0,0,0,946,0,No
5,3,7,0,0,5,0,0,0,0,0,0,0,946,0,No
0,1,0,0,0,3,0,0,0,0,0,0,0,946,0,No
39,11,72,0,0,4,0,0,0,0,0,0,0,946,0,No
11,4,19,2,1,4,1,1,0,0,1,7,10,946,0,No
5,3,7,0,0,4,0,0,0,0,0,0,0,788,0,No
3,2,4,0,0,4,0,0,0,0,0,0,0,992,0,No
4,3,6,0,0,4,0,0,0,0,0,0,0,946,0,No
0,2,0,0,0,3,0,0,0,0,0,0,0,946,0,No
0,2,0,0,0,3,0,0,0,0,0,0,0,946,0,No
5,3,8,0,0,5,0,0,0,0,0,0,0,946,0,No
0,2,0,0,0,3,0,0,0,0,0,0,0,946,0,No
5,2,5,0,0,3,0,0,0,0,0,0,0,992,0,No
5,2,5,0,0,3,0,0,0,0,0,0,0,992,0,No
5,2,5,0,0,3,0,0,0,0,0,0,0,992,0,No
4,2,4,0,0,3,0,0,0,0,0,0,0,992,0,No
4,1,4,0,0,3,0,0,0,0,0,0,0,953,0,No
5,2,5,0,0,3,0,0,0,0,0,0,0,992,0,No
5,4,5,0,0,3,0,0,0,0,0,0,0,992,0,No
6,3,6,0,0,3,0,0,0,0,0,0,0,992,0,No
5,3,5,0,0,3,0,0,0,0,0,0,0,992,0,No
5,4,5,0,0,3,0,0,0,0,0,0,0,992,0,No
1,0,1,0,0,3,0,0,0,0,0,0,0,953,0,No
4,2,4,0,0,3,0,0,0,0,0,0,0,553,0,No
8,5,8,0,0,3,0,0,0,0,0,0,0,953,0,No
7,2,7,0,0,3,0,0,0,0,0,0,0,992,0,No
7,3,7,0,0,3,0,0,0,0,0,0,0,992,0,No
8,4,8,0,0,3,0,0,0,0,0,0,0,992,0,No
5,4,5,0,0,3,0,0,0,0,0,0,0,992,0,No
12,5,12,0,0,3,0,0,0,0,0,0,0,992,0,No
8,3,8,0,0,3,0,0,0,0,0,0,0,992,0,No
13,5,13,0,0,3,0,0,0,0,0,0,0,992,0,No
4,2,4,0,0,3,0,0,0,0,0,0,0,553,0,No
4,2,4,0,0,5,0,0,0,0,0,0,0,992,0,No
5,2,5,0,0,3,0,0,0,0,0,0,0,992,0,No
5,4,5,0,0,3,0,0,0,0,0,0,0,992,0,No
8,2,12,0,0,3,0,0,0,0,0,0,0,992,0,No
5,2,7,0,0,3,0,0,0,0,0,0,0,981,0,No
5,2,7,0,0,3,0,0,0,0,0,0,0,981,0,No
4,5,9,0,0,3,0,0,0,0,0,0,0,981,0,No
5,2,7,0,0,3,0,0,0,0,0,0,0,981,0,No
5,6,8,0,0,3,0,0,0,0,0,0,0,981,0,No
6,5,9,0,0,3,0,0,0,0,0,0,0,981,0,No
5,4,8,0,0,3,0,0,0,0,0,0,0,355,0,No
5,6,8,0,0,3,0,0,0,0,0,0,0,916,0,No
4,3,4,0,0,3,0,0,0,0,0,0,0,449,0,No
8,6,14,0,0,3,0,0,0,0,0,0,0,522,0,No
7,3,10,0,0,3,0,0,0,0,0,0,0,347,0,No
8,4,12,0,0,3,0,0,0,0,0,0,0,347,0,No
5,6,8,0,0,3,0,0,0,0,0,0,0,981,0,No
13,8,23,0,0,4,0,0,0,0,0,0,0,981,0,No
9,7,14,0,0,3,0,0,0,0,0,0,0,981,0,No
4,3,4,0,0,3,0,0,0,0,0,0,0,449,0,No
5,2,7,0,0,3,0,0,0,0,0,0,0,981,0,No
5,6,8,0,0,3,0,0,0,0,0,0,0,981,0,No
2,2,2,0,1,3,0,0,0,0,0,0,0,963,0,No
1,2,2,0,0,3,0,0,0,0,0,0,0,992,0,No
1,3,6,0,0,4,0,0,0,0,0,0,0,992,0,No
1,2,2,0,0,3,0,0,0,0,0,0,0,963,0,No
0,1,0,0,0,3,0,0,0,0,0,0,0,992,0,No
0,0,0,0,0,3,0,0,0,0,0,0,0,992,0,No
1,1,1,0,0,3,0,0,0,0,0,0,0,963,0,No
0,0,0,0,0,3,0,0,0,0,0,0,0,788,0,No
0,0,0,0,0,3,0,0,0,0,0,0,0,788,0,No
0,0,0,0,0,3,0,0,0,0,0,0,0,788,0,No
1,0,2,0,0,3,0,0,0,0,0,0,0,788,0,No
0,0,0,0,0,3,0,0,0,0,0,0,0,788,0,No
4,1,7,0,0,3,0,0,0,0,0,0,0,788,0,No
0,0,0,0,0,3,0,0,0,0,0,0,0,553,0,No
0,0,0,0,0,3,0,0,0,0,0,0,0,788,0,No
0,0,0,0,0,3,0,0,0,0,0,0,0,553,0,No
0,0,0,0,0,3,0,0,0,0,0,0,0,553,0,No
0,0,0,0,0,3,0,0,0,0,0,0,0,553,0,No
0,0,0,0,0,3,0,0,0,0,0,0,0,788,0,No
0,0,0,0,0,3,0,0,0,0,0,0,0,788,0,No
0,0,0,0,0,3,0,0,0,0,0,0,0,553,0,No
0,0,0,0,0,3,0,0,0,0,0,0,0,788,0,No
0,0,0,0,0,3,0,0,0,0,0,0,0,788,0,No
0,0,0,0,0,3,0,0,0,0,0,0,0,953,0,No
12,2,58,0,0,3,0,0,0,0,0,0,0,509,0,No
0,0,0,0,0,3,0,0,0,0,0,0,0,953,0,No
0,0,0,0,0,3,0,0,0,0,0,0,0,953,0,No
12,1,32,0,1,4,0,0,0,0,0,0,0,907,0,No
1,0,1,0,0,3,0,0,0,0,0,0,0,992,0,No
0,0,0,0,0,3,0,0,0,0,0,0,0,953,0,No
5,3,6,0,0,3,0,0,0,0,0,0,0,553,0,No
0,0,0,0,0,3,0,0,0,0,0,0,0,553,0,No
2,1,2,0,0,4,0,0,0,0,0,0,0,347,0,No
0,1,0,0,0,3,0,0,0,0,0,0,0,553,0,No
1,1,10,0,0,1,0,0,0,0,0,0,0,322,0,No
2,7,3,0,0,3,0,0,0,0,0,0,0,771,0,No
5,9,9,0,0,4,0,0,0,0,0,0,0,944,0,Yes
0,0,0,0,0,3,0,0,0,0,0,0,0,953,0,No
8,21,20,32,0,5,16,16,0,0,2,9,15,930,0,Yes
8,13,27,0,0,4,0,0,0,0,0,0,0,921,0,No
5,9,9,0,0,4,0,0,0,0,0,0,0,949,0,Yes
1,0,1,0,0,3,0,0,0,0,0,0,0,992,0,No
8,12,15,0,0,5,0,0,0,0,0,0,0,439,0,No
5,9,9,0,0,5,0,0,0,0,0,0,0,627,0,Yes
3,7,3,0,1,3,0,0,0,0,0,0,0,442,0,No
2,2,2,0,0,3,0,0,0,0,0,0,0,917,0,No
3,9,22,0,0,4,0,0,0,0,0,0,0,932,0,No
4,7,7,0,0,3,0,0,0,0,0,0,0,944,0,No
3,2,3,0,0,4,0,0,0,0,0,0,0,449,0,No
4,10,9,0,0,3,0,0,0,0,0,0,0,944,0,No
8,0,10,0,0,3,0,0,0,0,0,0,0,959,0,No
6,7,10,0,0,4,0,0,0,0,0,0,0,439,0,No
0,0,0,0,0,3,0,0,0,0,0,0,0,953,0,No
3,6,9,0,0,3,0,0,0,0,0,0,0,768,0,Yes
2,0,2,0,0,3,0,0,0,0,0,0,0,992,0,No
3,3,18,0,0,5,0,0,0,0,0,0,0,487,0,No
2,0,8,0,0,3,0,0,0,0,0,0,0,355,0,No
4,10,20,0,0,3,0,0,0,0,0,0,0,553,0,No
14,0,18,0,0,4,0,0,0,0,0,0,0,376,0,Yes
13,7,13,0,1,4,0,0,0,0,0,0,0,460,0,Yes
15,8,19,10,2,5,5,5,0,0,1,7,10,477,0,Yes
0,0,0,0,0,3,0,0,0,0,0,0,0,553,0,Yes
9,1,9,0,0,3,0,0,0,0,0,0,0,442,0,Yes
2,3,2,0,0,3,0,0,0,0,0,0,0,466,0,No
1,1,1,0,0,4,0,0,0,0,0,0,0,553,0,No
1,3,1,0,0,4,0,0,0,0,0,0,0,466,0,No
1,2,2,0,0,4,0,0,0,0,0,0,0,466,0,Yes
1,2,1,0,0,3,0,0,0,0,0,0,0,466,0,No
1,1,1,0,0,3,0,0,0,0,0,0,0,553,0,No
1,0,1,0,0,3,0,0,0,0,0,0,0,553,0,No
4,0,4,0,0,3,0,0,0,0,0,0,0,553,0,No
13,4,16,0,0,4,0,0,0,0,0,0,0,454,0,No
1,4,1,0,0,4,0,0,0,0,0,0,0,466,0,No
0,0,0,0,0,3,0,0,0,0,0,0,0,953,0,No
1,0,16,0,0,3,0,0,0,0,0,0,0,371,0,No
0,1,0,0,0,3,0,0,0,0,0,0,0,588,0,No
0,0,0,0,0,3,0,0,0,0,0,0,0,588,0,No
3,0,3,0,0,3,0,0,0,0,0,0,0,1027,0,No
1,0,2,0,0,4,0,0,0,0,0,0,0,1027,0,No
2,0,2,0,0,4,0,0,0,0,0,0,0,403,0,No
35,1,42,0,0,4,0,0,0,0,0,0,0,943,0,No
11,1,12,0,0,3,0,0,0,0,0,0,0,943,0,No
19,0,28,0,1,3,0,0,0,0,0,0,0,963,0,No
13,0,17,0,0,4,0,0,0,0,0,0,0,943,0,No
2,1,2,0,0,3,0,0,0,0,0,0,0,588,0,No
1,0,1,0,0,3,0,0,0,0,0,0,0,382,0,No
12,1,14,0,0,1,0,0,0,0,0,0,0,357,0,No
10,3,10,0,0,3,0,0,0,0,0,0,0,382,0,No
7,1,11,0,0,3,0,0,0,0,0,0,0,874,0,No
3,1,3,0,0,3,0,0,0,0,0,0,0,1027,0,No
16,0,20,0,0,4,0,0,0,0,0,0,0,994,0,No
10,1,14,0,0,3,0,0,0,0,0,0,0,865,0,No
2,2,2,0,0,3,0,0,0,0,0,0,0,1027,0,No
4,1,4,0,0,3,0,0,0,0,0,0,0,1027,0,No
12,2,12,0,0,3,0,0,0,0,0,0,0,965,0,No
19,3,25,0,0,4,0,0,0,0,0,0,0,967,0,No
5,1,7,0,0,4,0,0,0,0,0,0,0,403,0,No
4,1,4,0,0,3,0,0,0,0,0,0,0,984,0,No
4,2,4,0,0,3,0,0,0,0,0,0,0,1027,0,No
24,4,27,0,0,4,0,0,0,0,0,0,0,484,0,No
16,1,17,0,1,3,0,0,0,0,0,0,0,477,0,No
2,2,2,0,0,3,0,0,0,0,0,0,0,1027,0,No
5,2,5,0,0,3,0,0,0,0,0,0,0,1027,0,No
8,2,8,0,0,4,0,0,0,0,0,0,0,379,0,No
14,2,14,0,0,3,0,0,0,0,0,0,0,865,0,No
3,1,3,0,0,3,0,0,0,0,0,0,0,588,0,No
24,2,32,0,0,3,0,0,0,0,0,0,0,382,0,No
36,4,36,0,0,3,0,0,0,0,0,0,0,963,0,No
25,0,31,0,0,3,0,0,0,0,0,0,0,956,0,No
8,0,12,0,0,3,0,0,0,0,0,0,0,1027,0,No
14,2,14,0,0,3,0,0,0,0,0,0,0,972,0,No
20,2,21,0,0,4,0,0,0,0,0,0,0,1027,0,No
2,2,2,0,0,3,0,0,0,0,0,0,0,1027,0,No
16,0,16,0,0,3,0,0,0,0,0,0,0,588,0,No
2,0,2,0,0,3,0,0,0,0,0,0,0,865,0,No
12,1,16,0,0,3,0,0,0,0,0,0,0,865,0,No
10,3,13,0,0,3,0,0,0,0,0,0,0,474,0,No
2,1,2,0,0,3,0,0,0,0,0,0,0,1027,0,No
4,1,4,0,0,3,0,0,0,0,0,0,0,588,0,No
20,2,21,0,0,3,0,0,0,0,0,0,0,490,0,No
10,11,52,0,2,5,0,0,0,0,0,0,0,470,0,No
7,1,13,0,0,3,0,0,0,0,0,0,0,972,0,No
8,1,8,0,0,3,0,0,0,0,0,0,0,972,0,No
20,1,24,0,0,3,0,0,0,0,0,0,0,988,0,No
0,0,0,0,0,3,0,0,0,0,0,0,0,988,0,No
5,3,9,0,0,1,0,0,0,0,0,0,0,341,0,No
0,0,0,0,0,3,0,0,0,0,0,0,0,988,0,No
1,0,1,0,0,3,0,0,0,0,0,0,0,988,0,No
0,0,0,0,0,3,0,0,0,0,0,0,0,988,0,No
48,1,52,0,0,4,0,0,0,0,0,0,0,557,0,No
1,0,1,0,0,3,0,0,0,0,0,0,0,988,0,No
0,0,0,0,0,3,0,0,0,0,0,0,0,988,0,No
0,0,0,0,0,3,0,0,0,0,0,0,0,988,0,No
1,0,2,0,0,3,0,0,0,0,0,0,0,988,0,No
0,0,0,0,0,3,0,0,0,0,0,0,0,988,0,No
0,0,0,0,0,3,0,0,0,0,0,0,0,988,0,No
4,1,6,0,0,4,0,0,0,0,0,0,0,988,0,No
2,0,9,0,0,3,0,0,0,0,0,0,0,390,0,No
1,0,1,0,0,3,0,0,0,0,0,0,0,988,0,No
0,0,0,0,0,3,0,0,0,0,0,0,0,988,0,No
0,0,0,0,0,3,0,0,0,0,0,0,0,588,0,No
0,0,0,0,0,3,0,0,0,0,0,0,0,588,0,No
0,0,0,0,0,3,0,0,0,0,0,0,0,988,0,No
6,12,16,0,0,4,0,0,0,0,0,0,0,988,0,No
11,1,13,0,0,5,0,0,0,0,0,0,0,988,0,No
0,0,0,0,0,3,0,0,0,0,0,0,0,988,0,No
7,2,16,0,0,2,0,0,0,0,0,0,0,369,0,No
2,0,2,0,0,3,0,0,0,0,0,0,0,588,0,No
2,0,3,0,0,3,0,0,0,0,0,0,0,1027,0,No
2,0,7,0,0,3,0,0,0,0,0,0,0,707,0,Yes
2,2,5,1,1,4,1,1,1,1,1,1,1,705,0,Yes
4,3,8,0,0,3,0,0,0,0,0,0,0,480,0,Yes
2,0,8,2,0,4,1,1,0,0,1,2,2,816,0,No
1,1,1,2,0,3,1,1,0,0,1,9,92,988,0,No
2,7,4,16,1,3,9,5,2,3,4,10,21,382,0,Yes
0,0,0,0,0,3,0,0,0,0,0,0,0,988,0,No
0,0,0,0,0,3,0,0,0,0,0,0,0,588,0,No
0,0,0,0,0,3,0,0,0,0,0,0,0,988,0,No
0,3,0,0,0,4,0,0,0,0,0,0,0,477,0,No
0,2,0,0,0,3,0,0,0,0,0,0,0,657,0,No
3,2,3,0,0,1,0,0,0,0,0,0,0,369,0,No
1,2,1,0,0,4,0,0,0,0,0,0,0,587,0,No
2,6,3,0,0,3,0,0,0,0,0,0,0,587,0,No
11,9,16,4,0,5,2,2,0,0,1,9,92,988,0,No
2,3,2,0,0,3,0,0,0,0,0,0,0,657,0,No
2,1,2,38,0,3,18,18,-2,0,3,7,15,657,0,No
0,3,0,0,0,3,0,0,0,0,0,0,0,382,0,No
8,7,12,39,0,4,18,14,-3,1,2,11,100,655,0,No
1,0,1,0,0,3,0,0,0,0,0,0,0,988,0,No
15,14,60,58,2,6,26,19,-6,0,4,14,99,382,0,Yes
1,5,1,73,0,4,32,21,-9,0,2,11,100,473,0,Yes
1,5,2,0,0,3,0,0,0,0,0,0,0,484,0,No
9,9,15,56,0,3,27,15,-2,0,2,11,100,655,0,No
3,3,3,0,1,4,0,0,0,0,0,0,0,487,0,Yes
5,2,5,0,0,5,0,0,0,0,0,0,0,936,0,No
1,2,2,0,0,4,0,0,0,0,0,0,0,784,0,No
7,6,9,0,0,5,0,0,0,0,0,0,0,936,0,No
7,3,7,0,0,4,0,0,0,0,0,0,0,477,0,No
5,6,33,0,0,5,0,0,0,0,0,0,0,544,0,Yes
10,4,11,0,0,3,0,0,0,0,0,0,0,369,0,No
5,3,7,0,0,5,0,0,0,0,0,0,0,957,0,No
5,4,7,0,0,5,0,0,0,0,0,0,0,957,0,No
18,6,30,0,0,5,0,0,0,0,0,0,0,1027,0,Yes
16,8,23,0,0,5,0,0,0,0,0,0,0,852,0,Yes
5,4,5,0,0,5,0,0,0,0,0,0,0,470,0,No
15,7,24,0,2,5,0,0,0,0,0,0,0,978,0,No
2,3,2,0,0,4,0,0,0,0,0,0,0,784,0,No
4,0,4,0,0,1,0,0,0,0,0,0,0,369,0,No
2,1,3,69,0,1,69,69,69,69,1,9,92,11,0,No
2,1,3,38,0,3,21,21,4,4,1,9,92,707,0,No
2,0,2,12,0,3,6,6,0,0,1,9,92,707,0,No
1,1,2,0,0,3,0,0,0,0,0,0,0,477,0,No
1,1,2,0,0,3,0,0,0,0,0,0,0,477,0,No
1,0,1,0,0,3,0,0,0,0,0,0,0,988,0,No
14,3,33,70,0,3,33,33,-4,0,1,9,92,396,0,No
3,0,3,0,0,3,0,0,0,0,0,0,0,746,0,No
1,0,1,0,0,3,0,0,0,0,0,0,0,936,0,No
1,1,1,13,1,3,3,3,-7,0,1,8,15,544,0,No
2,0,3,0,0,3,0,0,0,0,0,0,0,936,0,No
4,0,7,0,0,4,0,0,0,0,0,0,0,936,0,Yes
1,0,1,0,0,3,0,0,0,0,0,0,0,988,0,No
0,0,0,0,0,3,0,0,0,0,0,0,0,988,0,No
8,0,14,0,0,4,0,0,0,0,0,0,0,544,0,No
7,0,11,138,1,1,138,138,138,138,1,8,15,18,0,No
26,0,36,9,1,1,7,7,5,5,1,8,15,357,0,No
12,0,20,0,0,1,0,0,0,0,0,0,0,349,0,No
1,4,9,0,0,4,0,0,0,0,0,0,0,390,0,No
1,0,1,0,1,3,0,0,0,0,0,0,0,988,0,No
13,3,18,0,1,5,0,0,0,0,0,0,0,981,0,No
2,0,2,0,0,3,0,0,0,0,0,0,0,988,0,No
25,0,42,0,2,4,0,0,0,0,0,0,0,981,0,No
6,3,12,0,0,4,0,0,0,0,0,0,0,1001,0,No
8,0,13,0,1,4,0,0,0,0,0,0,0,382,0,No
8,0,10,0,0,4,0,0,0,0,0,0,0,662,0,No
0,1,0,0,0,4,0,0,0,0,0,0,0,981,0,No
4,1,4,0,0,3,0,0,0,0,0,0,0,1016,0,No
23,5,31,0,0,4,0,0,0,0,0,0,0,484,0,No
16,1,17,0,0,4,0,0,0,0,0,0,0,477,0,No
0,1,0,0,0,3,0,0,0,0,0,0,0,981,0,No
6,4,6,0,0,3,0,0,0,0,0,0,0,557,0,No
14,5,14,0,0,4,0,0,0,0,0,0,0,865,0,No
6,1,8,0,0,3,0,0,0,0,0,0,0,382,0,No
5,2,7,0,0,3,0,0,0,0,0,0,0,382,0,No
4,1,4,0,0,3,0,0,0,0,0,0,0,588,0,No
15,2,15,0,0,3,0,0,0,0,0,0,0,972,0,No
0,1,0,0,0,3,0,0,0,0,0,0,0,981,0,No
4,0,4,0,0,3,0,0,0,0,0,0,0,1027,0,No
6,2,6,0,0,3,0,0,0,0,0,0,0,1016,0,No
5,0,10,0,0,3,0,0,0,0,0,0,0,865,0,No
4,0,4,0,0,3,0,0,0,0,0,0,0,865,0,No
8,4,11,0,0,3,0,0,0,0,0,0,0,474,0,No
11,4,19,0,0,4,0,0,0,0,0,0,0,981,0,No
5,3,7,0,0,4,0,0,0,0,0,0,0,823,0,No
3,2,4,0,0,4,0,0,0,0,0,0,0,1027,0,No
4,3,6,0,0,4,0,0,0,0,0,0,0,981,0,No
0,1,0,0,0,3,0,0,0,0,0,0,0,981,0,No
0,1,0,0,0,3,0,0,0,0,0,0,0,981,0,No
5,3,7,0,0,5,0,0,0,0,0,0,0,981,0,No
0,1,0,0,0,3,0,0,0,0,0,0,0,981,0,No
0,0,0,0,0,3,0,0,0,0,0,0,0,988,0,No
11,4,19,0,0,4,0,0,0,0,0,0,0,981,0,No
5,3,7,0,0,4,0,0,0,0,0,0,0,823,0,No
3,2,4,0,0,4,0,0,0,0,0,0,0,1027,0,No
4,3,6,0,0,4,0,0,0,0,0,0,0,981,0,No
0,1,0,0,0,3,0,0,0,0,0,0,0,981,0,No
0,1,0,0,0,3,0,0,0,0,0,0,0,981,0,No
5,3,7,0,0,5,0,0,0,0,0,0,0,981,0,No
0,1,0,0,0,3,0,0,0,0,0,0,0,981,0,No
39,11,72,0,0,4,0,0,0,0,0,0,0,981,0,No
11,4,19,0,1,4,0,0,0,0,0,0,0,981,0,No
5,3,7,0,0,4,0,0,0,0,0,0,0,823,0,No
3,2,4,0,0,4,0,0,0,0,0,0,0,1027,0,No
4,3,6,0,0,4,0,0,0,0,0,0,0,981,0,No
0,2,0,0,0,3,0,0,0,0,0,0,0,981,0,No
0,2,0,0,0,3,0,0,0,0,0,0,0,981,0,No
5,3,8,0,0,5,0,0,0,0,0,0,0,981,0,No
0,2,0,0,0,3,0,0,0,0,0,0,0,981,0,No
5,2,5,0,0,3,0,0,0,0,0,0,0,1027,0,No
5,2,5,0,0,3,0,0,0,0,0,0,0,1027,0,No
5,2,5,0,0,3,0,0,0,0,0,0,0,1027,0,No
4,2,4,0,0,3,0,0,0,0,0,0,0,1027,0,No
4,1,4,0,0,3,0,0,0,0,0,0,0,988,0,No
5,2,5,0,0,3,0,0,0,0,0,0,0,1027,0,No
5,4,5,0,0,3,0,0,0,0,0,0,0,1027,0,No
6,3,6,0,0,3,0,0,0,0,0,0,0,1027,0,No
5,3,5,0,0,3,0,0,0,0,0,0,0,1027,0,No
5,4,5,0,0,3,0,0,0,0,0,0,0,1027,0,No
1,0,1,0,0,3,0,0,0,0,0,0,0,988,0,No
4,2,4,0,0,3,0,0,0,0,0,0,0,588,0,No
8,5,8,0,0,3,0,0,0,0,0,0,0,988,0,Yes
7,2,7,0,0,3,0,0,0,0,0,0,0,1027,0,No
7,3,7,0,0,3,0,0,0,0,0,0,0,1027,0,No
8,4,8,0,0,3,0,0,0,0,0,0,0,1027,0,No
5,4,5,0,0,3,0,0,0,0,0,0,0,1027,0,No
12,5,12,0,0,3,0,0,0,0,0,0,0,1027,0,No
8,3,8,0,0,3,0,0,0,0,0,0,0,1027,0,No
13,5,13,0,0,3,0,0,0,0,0,0,0,1027,0,No
4,2,4,0,0,3,0,0,0,0,0,0,0,588,0,No
4,2,4,0,0,5,0,0,0,0,0,0,0,1027,0,No
5,2,5,0,0,3,0,0,0,0,0,0,0,1027,0,No
5,4,5,0,0,3,0,0,0,0,0,0,0,1027,0,No
8,2,12,0,0,3,0,0,0,0,0,0,0,1027,0,No
5,2,7,0,0,3,0,0,0,0,0,0,0,1016,0,No
5,2,7,0,0,3,0,0,0,0,0,0,0,1016,0,No
4,5,9,0,0,3,0,0,0,0,0,0,0,1016,0,No
5,2,7,0,0,3,0,0,0,0,0,0,0,1016,0,No
5,6,8,0,0,3,0,0,0,0,0,0,0,1016,0,No
6,5,9,0,0,3,0,0,0,0,0,0,0,1016,0,No
5,4,8,0,0,3,0,0,0,0,0,0,0,390,0,No
5,6,8,0,0,3,0,0,0,0,0,0,0,951,0,No
4,3,4,0,0,3,0,0,0,0,0,0,0,484,0,No
8,6,14,0,0,3,0,0,0,0,0,0,0,557,0,No
7,3,10,0,0,3,0,0,0,0,0,0,0,382,0,No
8,4,12,0,0,3,0,0,0,0,0,0,0,382,0,No
5,6,8,0,0,3,0,0,0,0,0,0,0,1016,0,No
13,8,23,0,0,4,0,0,0,0,0,0,0,1016,0,No
9,7,14,0,0,3,0,0,0,0,0,0,0,1016,0,No
4,3,4,0,0,3,0,0,0,0,0,0,0,484,0,No
5,2,7,0,0,3,0,0,0,0,0,0,0,1016,0,No
5,6,8,0,0,3,0,0,0,0,0,0,0,1016,0,No
2,2,2,0,1,3,0,0,0,0,0,0,0,998,0,No
1,2,2,0,0,3,0,0,0,0,0,0,0,1027,0,No
1,3,6,0,0,4,0,0,0,0,0,0,0,1027,0,No
1,2,2,0,0,3,0,0,0,0,0,0,0,998,0,No
0,1,0,0,0,3,0,0,0,0,0,0,0,1027,0,No
0,0,0,0,0,3,0,0,0,0,0,0,0,1027,0,No
1,1,1,0,0,3,0,0,0,0,0,0,0,998,0,No
0,0,0,0,0,3,0,0,0,0,0,0,0,823,0,No
0,0,0,0,0,3,0,0,0,0,0,0,0,823,0,No
0,0,0,0,0,3,0,0,0,0,0,0,0,823,0,No
1,0,2,0,0,3,0,0,0,0,0,0,0,823,0,No
0,0,0,0,0,3,0,0,0,0,0,0,0,823,0,No
4,1,7,0,0,3,0,0,0,0,0,0,0,823,0,Yes
0,0,0,0,0,3,0,0,0,0,0,0,0,588,0,No
0,0,0,0,0,3,0,0,0,0,0,0,0,823,0,No
0,0,0,0,0,3,0,0,0,0,0,0,0,588,0,No
0,0,0,0,0,3,0,0,0,0,0,0,0,588,0,No
0,0,0,0,0,3,0,0,0,0,0,0,0,588,0,No
0,0,0,0,0,3,0,0,0,0,0,0,0,823,0,No
0,0,0,0,0,3,0,0,0,0,0,0,0,823,0,No
0,0,0,0,0,3,0,0,0,0,0,0,0,588,0,No
0,0,0,0,0,3,0,0,0,0,0,0,0,823,0,No
0,0,0,0,0,3,0,0,0,0,0,0,0,823,0,No
0,0,0,0,0,3,0,0,0,0,0,0,0,988,0,No
12,2,58,0,0,3,0,0,0,0,0,0,0,544,0,No
0,0,0,0,0,3,0,0,0,0,0,0,0,988,0,No
0,0,0,0,0,3,0,0,0,0,0,0,0,988,0,No
12,1,32,0,1,4,0,0,0,0,0,0,0,942,0,No
1,0,1,0,0,3,0,0,0,0,0,0,0,1027,0,No
0,0,0,0,0,3,0,0,0,0,0,0,0,988,0,No
5,3,6,0,0,3,0,0,0,0,0,0,0,588,0,Yes
0,0,0,0,0,3,0,0,0,0,0,0,0,588,0,No
2,1,2,0,0,4,0,0,0,0,0,0,0,382,0,No
0,1,0,0,0,3,0,0,0,0,0,0,0,588,0,No
1,1,10,0,0,1,0,0,0,0,0,0,0,357,0,Yes
2,7,3,0,0,3,0,0,0,0,0,0,0,806,0,No
5,9,9,0,0,4,0,0,0,0,0,0,0,979,0,No
0,0,0,0,0,3,0,0,0,0,0,0,0,988,0,No
8,21,20,0,0,5,0,0,0,0,0,0,0,965,0,No
8,13,27,0,0,4,0,0,0,0,0,0,0,956,0,No
5,9,9,0,0,4,0,0,0,0,0,0,0,984,0,No
1,0,1,0,0,3,0,0,0,0,0,0,0,1027,0,No
8,12,15,0,0,5,0,0,0,0,0,0,0,474,0,No
5,9,9,0,0,5,0,0,0,0,0,0,0,662,0,No
3,7,3,0,1,3,0,0,0,0,0,0,0,477,0,No
2,2,2,0,0,3,0,0,0,0,0,0,0,952,0,No
3,9,22,0,0,4,0,0,0,0,0,0,0,967,0,No
4,7,7,0,0,3,0,0,0,0,0,0,0,979,0,No
3,2,3,0,0,4,0,0,0,0,0,0,0,484,0,No
4,10,9,0,0,3,0,0,0,0,0,0,0,979,0,No
8,0,10,0,0,3,0,0,0,0,0,0,0,994,0,No
6,7,10,0,0,4,0,0,0,0,0,0,0,474,0,No
0,0,0,0,0,3,0,0,0,0,0,0,0,988,0,No
3,6,9,0,0,3,0,0,0,0,0,0,0,803,0,No
2,0,2,0,0,3,0,0,0,0,0,0,0,1027,0,No
3,3,18,0,0,5,0,0,0,0,0,0,0,522,0,No
2,0,8,0,0,3,0,0,0,0,0,0,0,390,0,No
4,10,20,0,0,3,0,0,0,0,0,0,0,588,0,No
5,0,5,69,0,1,69,69,69,69,1,4,8,13,0,No
14,0,18,0,0,4,0,0,0,0,0,0,0,411,0,No
13,7,13,2,2,4,0,0,-2,0,1,8,10,495,0,No
15,8,19,4,3,5,2,2,0,0,1,8,10,512,0,No
0,0,0,0,0,3,0,0,0,0,0,0,0,588,0,No
9,1,9,2,1,3,0,0,-2,0,1,8,10,477,0,No
2,3,2,0,0,3,0,0,0,0,0,0,0,501,0,No
1,1,1,0,0,4,0,0,0,0,0,0,0,588,0,No
1,3,1,0,0,4,0,0,0,0,0,0,0,501,0,No
1,2,2,1,1,4,0,0,-1,0,2,4,4,501,0,No
1,2,1,0,0,3,0,0,0,0,0,0,0,501,0,No
1,1,1,0,0,3,0,0,0,0,0,0,0,588,0,No
1,0,1,0,0,3,0,0,0,0,0,0,0,588,0,No
4,0,4,0,0,3,0,0,0,0,0,0,0,588,0,No
13,4,16,0,0,4,0,0,0,0,0,0,0,489,0,No
1,4,1,1,0,4,0,0,-1,0,3,7,15,501,0,No
0,0,0,0,0,3,0,0,0,0,0,0,0,988,0,No
1,0,16,0,0,3,0,0,0,0,0,0,0,406,0,No
0,1,0,0,0,3,0,0,0,0,0,0,0,615,0,No
0,0,0,0,0,3,0,0,0,0,0,0,0,615,0,No
3,0,3,0,0,3,0,0,0,0,0,0,0,1054,0,No
1,0,2,0,0,4,0,0,0,0,0,0,0,1054,0,No
2,0,2,0,0,4,0,0,0,0,0,0,0,430,0,No
35,1,42,0,0,4,0,0,0,0,0,0,0,970,0,No
11,1,12,0,0,3,0,0,0,0,0,0,0,970,0,No
19,0,28,0,1,3,0,0,0,0,0,0,0,990,0,No
13,0,17,0,0,4,0,0,0,0,0,0,0,970,0,No
2,1,2,0,0,3,0,0,0,0,0,0,0,615,0,No
1,0,1,0,0,3,0,0,0,0,0,0,0,409,0,No
12,1,14,0,0,1,0,0,0,0,0,0,0,384,0,No
10,3,10,0,0,3,0,0,0,0,0,0,0,409,0,No
7,1,11,0,0,3,0,0,0,0,0,0,0,901,0,No
3,1,3,0,0,3,0,0,0,0,0,0,0,1054,0,No
16,0,20,0,0,4,0,0,0,0,0,0,0,1021,0,No
10,1,14,0,0,3,0,0,0,0,0,0,0,892,0,No
2,2,2,0,0,3,0,0,0,0,0,0,0,1054,0,No
4,1,4,0,0,3,0,0,0,0,0,0,0,1054,0,No
12,2,12,0,0,3,0,0,0,0,0,0,0,992,0,No
19,3,25,0,0,4,0,0,0,0,0,0,0,994,0,No
5,1,7,0,0,4,0,0,0,0,0,0,0,430,0,No
4,1,4,0,0,3,0,0,0,0,0,0,0,1011,0,No
4,2,4,0,0,3,0,0,0,0,0,0,0,1054,0,No
24,4,27,0,0,4,0,0,0,0,0,0,0,511,0,No
16,1,17,0,1,3,0,0,0,0,0,0,0,504,0,No
2,2,2,0,0,3,0,0,0,0,0,0,0,1054,0,No
5,2,5,0,0,3,0,0,0,0,0,0,0,1054,0,No
8,2,8,0,0,4,0,0,0,0,0,0,0,406,0,No
14,2,14,0,0,3,0,0,0,0,0,0,0,892,0,No
3,1,3,0,0,3,0,0,0,0,0,0,0,615,0,No
24,2,32,0,0,3,0,0,0,0,0,0,0,409,0,No
36,4,36,0,0,3,0,0,0,0,0,0,0,990,0,No
25,0,31,0,0,3,0,0,0,0,0,0,0,983,0,No
8,0,12,0,0,3,0,0,0,0,0,0,0,1054,0,No
14,2,14,0,0,3,0,0,0,0,0,0,0,999,0,No
20,2,21,0,0,4,0,0,0,0,0,0,0,1054,0,No
2,2,2,0,0,3,0,0,0,0,0,0,0,1054,0,No
16,0,16,0,0,3,0,0,0,0,0,0,0,615,0,No
2,0,2,0,0,3,0,0,0,0,0,0,0,892,0,No
12,1,16,0,0,3,0,0,0,0,0,0,0,892,0,No
10,3,13,0,0,3,0,0,0,0,0,0,0,501,0,No
2,1,2,0,0,3,0,0,0,0,0,0,0,1054,0,No
4,1,4,0,0,3,0,0,0,0,0,0,0,615,0,No
20,2,21,0,0,3,0,0,0,0,0,0,0,517,0,No
10,11,52,0,2,5,0,0,0,0,0,0,0,497,0,No
7,1,13,0,0,3,0,0,0,0,0,0,0,999,0,No
8,1,8,0,0,3,0,0,0,0,0,0,0,999,0,No
20,1,24,0,0,3,0,0,0,0,0,0,0,1015,0,No
0,0,0,0,0,3,0,0,0,0,0,0,0,1015,0,No
5,3,9,0,0,1,0,0,0,0,0,0,0,368,0,No
0,0,0,0,0,3,0,0,0,0,0,0,0,1015,0,No
1,0,1,0,0,3,0,0,0,0,0,0,0,1015,0,No
0,0,0,0,0,3,0,0,0,0,0,0,0,1015,0,No
48,1,52,0,0,4,0,0,0,0,0,0,0,584,0,No
1,0,1,0,0,3,0,0,0,0,0,0,0,1015,0,No
0,0,0,0,0,3,0,0,0,0,0,0,0,1015,0,No
0,0,0,0,0,3,0,0,0,0,0,0,0,1015,0,No
1,0,2,0,0,3,0,0,0,0,0,0,0,1015,0,No
0,0,0,0,0,3,0,0,0,0,0,0,0,1015,0,No
0,0,0,0,0,3,0,0,0,0,0,0,0,1015,0,No
4,1,6,0,0,4,0,0,0,0,0,0,0,1015,0,No
2,0,9,0,0,3,0,0,0,0,0,0,0,417,0,No
1,0,1,0,0,3,0,0,0,0,0,0,0,1015,0,No
0,0,0,0,0,3,0,0,0,0,0,0,0,1015,0,No
0,0,0,0,0,3,0,0,0,0,0,0,0,615,0,No
0,0,0,0,0,3,0,0,0,0,0,0,0,615,0,No
0,0,0,0,0,3,0,0,0,0,0,0,0,1015,0,No
6,12,16,0,0,4,0,0,0,0,0,0,0,1015,0,No
11,0,12,25,0,5,10,10,-5,0,1,3,3,1015,0,No
0,0,0,13,0,3,3,3,-7,0,1,3,3,1015,0,No
7,2,16,0,0,2,0,0,0,0,0,0,0,396,0,No
2,0,2,0,0,3,0,0,0,0,0,0,0,615,0,No
2,0,3,0,0,3,0,0,0,0,0,0,0,1054,0,No
2,0,7,12,1,3,6,6,0,0,1,3,5,734,0,No
4,3,8,7,1,3,3,3,-1,0,1,3,5,507,0,No
2,0,8,0,0,4,0,0,0,0,0,0,0,843,0,No
1,1,1,0,0,3,0,0,0,0,0,0,0,1015,0,No
2,7,4,0,1,3,0,0,0,0,0,0,0,409,0,No
0,0,0,0,0,3,0,0,0,0,0,0,0,1015,0,No
0,0,0,0,0,3,0,0,0,0,0,0,0,615,0,No
0,0,0,0,0,3,0,0,0,0,0,0,0,1015,0,No
0,3,0,0,0,4,0,0,0,0,0,0,0,504,0,No
0,2,0,0,0,3,0,0,0,0,0,0,0,684,0,No
3,2,3,0,0,1,0,0,0,0,0,0,0,396,0,No
1,2,1,0,0,4,0,0,0,0,0,0,0,614,0,No
2,6,3,0,0,3,0,0,0,0,0,0,0,614,0,No
11,9,16,0,0,5,0,0,0,0,0,0,0,1015,0,Yes
2,3,2,0,0,3,0,0,0,0,0,0,0,684,0,No
2,1,2,0,0,3,0,0,0,0,0,0,0,684,0,No
0,3,0,0,0,3,0,0,0,0,0,0,0,409,0,No
8,7,12,0,0,4,0,0,0,0,0,0,0,682,0,No
1,0,1,0,0,3,0,0,0,0,0,0,0,1015,0,No
15,14,59,11,3,6,3,3,-5,0,1,2,2,409,0,No
1,5,1,0,0,4,0,0,0,0,0,0,0,500,0,No
1,5,2,0,0,3,0,0,0,0,0,0,0,511,0,No
9,9,15,0,0,3,0,0,0,0,0,0,0,682,0,No
3,3,3,0,1,4,0,0,0,0,0,0,0,514,0,No
5,2,5,0,0,5,0,0,0,0,0,0,0,963,0,No
1,2,2,0,0,4,0,0,0,0,0,0,0,811,0,No
7,6,9,0,0,5,0,0,0,0,0,0,0,963,0,No
7,3,7,0,0,4,0,0,0,0,0,0,0,504,0,No
5,6,33,0,0,5,0,0,0,0,0,0,0,571,0,Yes
10,4,11,0,0,3,0,0,0,0,0,0,0,396,0,Yes
5,3,7,0,0,5,0,0,0,0,0,0,0,984,0,No
5,4,7,0,0,5,0,0,0,0,0,0,0,984,0,Yes
18,6,30,2,1,5,0,0,-2,0,1,3,3,1054,0,No
16,8,23,0,0,5,0,0,0,0,0,0,0,879,0,Yes
5,4,5,0,0,5,0,0,0,0,0,0,0,497,0,No
15,7,24,0,2,5,0,0,0,0,0,0,0,1005,0,Yes
2,3,2,0,0,4,0,0,0,0,0,0,0,811,0,No
4,0,4,0,0,1,0,0,0,0,0,0,0,396,0,No
2,1,3,0,0,1,0,0,0,0,0,0,0,38,0,No
2,1,3,0,0,3,0,0,0,0,0,0,0,734,0,No
2,0,2,0,0,3,0,0,0,0,0,0,0,734,0,No
1,1,2,0,0,3,0,0,0,0,0,0,0,504,0,No
1,1,2,0,0,3,0,0,0,0,0,0,0,504,0,No
1,0,1,0,0,3,0,0,0,0,0,0,0,1015,0,No
14,3,33,0,0,3,0,0,0,0,0,0,0,423,0,No
3,0,3,0,0,3,0,0,0,0,0,0,0,773,0,No
1,0,1,0,0,3,0,0,0,0,0,0,0,963,0,No
2,1,2,5,1,4,5,5,5,5,1,5,6,571,0,No
2,0,3,0,0,3,0,0,0,0,0,0,0,963,0,No
1,0,1,0,0,3,0,0,0,0,0,0,0,1015,0,No
0,0,0,0,0,3,0,0,0,0,0,0,0,1015,0,No
8,0,14,0,0,4,0,0,0,0,0,0,0,571,0,No
1,0,1,92,2,1,2,2,-88,0,3,3,4,45,0,No
26,0,36,11,2,1,5,5,-1,0,2,2,3,384,0,No
12,0,20,0,0,1,0,0,0,0,0,0,0,376,0,No
1,4,9,0,0,4,0,0,0,0,0,0,0,417,0,Yes
1,0,1,0,1,3,0,0,0,0,0,0,0,1015,0,No
13,3,18,0,1,5,0,0,0,0,0,0,0,1008,0,No
2,0,2,0,0,3,0,0,0,0,0,0,0,1015,0,No
25,0,42,0,2,4,0,0,0,0,0,0,0,1008,0,No
6,3,12,0,0,4,0,0,0,0,0,0,0,1028,0,No
8,0,13,0,1,4,0,0,0,0,0,0,0,409,0,No
8,0,10,0,0,4,0,0,0,0,0,0,0,689,0,No
0,1,0,0,0,4,0,0,0,0,0,0,0,1008,0,No
4,1,4,0,0,3,0,0,0,0,0,0,0,1043,0,No
23,5,31,0,0,4,0,0,0,0,0,0,0,511,0,No
16,1,17,0,0,4,0,0,0,0,0,0,0,504,0,No
0,1,0,0,0,3,0,0,0,0,0,0,0,1008,0,No
6,4,6,0,0,3,0,0,0,0,0,0,0,584,0,No
14,5,14,0,0,4,0,0,0,0,0,0,0,892,0,No
6,1,8,0,0,3,0,0,0,0,0,0,0,409,0,No
5,2,7,0,0,3,0,0,0,0,0,0,0,409,0,No
4,1,4,0,0,3,0,0,0,0,0,0,0,615,0,No
15,2,15,0,0,3,0,0,0,0,0,0,0,999,0,No
0,1,0,0,0,3,0,0,0,0,0,0,0,1008,0,No
4,0,4,0,0,3,0,0,0,0,0,0,0,1054,0,No
6,2,6,0,0,3,0,0,0,0,0,0,0,1043,0,No
5,0,10,0,0,3,0,0,0,0,0,0,0,892,0,No
4,0,4,0,0,3,0,0,0,0,0,0,0,892,0,No
8,4,11,0,0,3,0,0,0,0,0,0,0,501,0,No
11,4,19,0,0,4,0,0,0,0,0,0,0,1008,0,No
5,3,7,0,0,4,0,0,0,0,0,0,0,850,0,No
3,2,4,0,0,4,0,0,0,0,0,0,0,1054,0,No
4,3,6,0,0,4,0,0,0,0,0,0,0,1008,0,No
0,1,0,0,0,3,0,0,0,0,0,0,0,1008,0,No
0,1,0,0,0,3,0,0,0,0,0,0,0,1008,0,No
5,3,7,0,0,5,0,0,0,0,0,0,0,1008,0,No
0,1,0,0,0,3,0,0,0,0,0,0,0,1008,0,No
0,0,0,0,0,3,0,0,0,0,0,0,0,1015,0,No
11,4,19,0,0,4,0,0,0,0,0,0,0,1008,0,No
5,3,7,0,0,4,0,0,0,0,0,0,0,850,0,No
3,2,4,0,0,4,0,0,0,0,0,0,0,1054,0,No
4,3,6,0,0,4,0,0,0,0,0,0,0,1008,0,No
0,1,0,0,0,3,0,0,0,0,0,0,0,1008,0,No
0,1,0,0,0,3,0,0,0,0,0,0,0,1008,0,No
5,3,7,0,0,5,0,0,0,0,0,0,0,1008,0,No
0,1,0,0,0,3,0,0,0,0,0,0,0,1008,0,No
39,11,72,0,0,4,0,0,0,0,0,0,0,1008,0,No
11,4,19,0,1,4,0,0,0,0,0,0,0,1008,0,No
5,3,7,0,0,4,0,0,0,0,0,0,0,850,0,No
3,2,4,0,0,4,0,0,0,0,0,0,0,1054,0,No
4,3,6,0,0,4,0,0,0,0,0,0,0,1008,0,No
0,2,0,0,0,3,0,0,0,0,0,0,0,1008,0,No
0,2,0,0,0,3,0,0,0,0,0,0,0,1008,0,No
5,3,8,0,0,5,0,0,0,0,0,0,0,1008,0,No
0,2,0,0,0,3,0,0,0,0,0,0,0,1008,0,No
5,2,5,0,0,3,0,0,0,0,0,0,0,1054,0,No
5,2,5,0,0,3,0,0,0,0,0,0,0,1054,0,No
5,2,5,0,0,3,0,0,0,0,0,0,0,1054,0,No
4,2,4,0,0,3,0,0,0,0,0,0,0,1054,0,No
4,1,4,0,0,3,0,0,0,0,0,0,0,1015,0,No
5,2,5,0,0,3,0,0,0,0,0,0,0,1054,0,No
5,4,5,0,0,3,0,0,0,0,0,0,0,1054,0,No
6,3,6,0,0,3,0,0,0,0,0,0,0,1054,0,No
5,3,5,0,0,3,0,0,0,0,0,0,0,1054,0,No
5,4,5,0,0,3,0,0,0,0,0,0,0,1054,0,No
1,0,1,0,0,3,0,0,0,0,0,0,0,1015,0,No
4,2,4,0,0,3,0,0,0,0,0,0,0,615,0,No
8,5,8,0,0,3,0,0,0,0,0,0,0,1015,0,No
7,2,7,0,0,3,0,0,0,0,0,0,0,1054,0,Yes
7,3,7,0,0,3,0,0,0,0,0,0,0,1054,0,No
8,4,8,0,0,3,0,0,0,0,0,0,0,1054,0,No
5,4,5,0,0,3,0,0,0,0,0,0,0,1054,0,No
12,5,12,0,0,3,0,0,0,0,0,0,0,1054,0,Yes
8,3,8,0,0,3,0,0,0,0,0,0,0,1054,0,No
13,5,13,0,0,3,0,0,0,0,0,0,0,1054,0,Yes
4,2,4,0,0,3,0,0,0,0,0,0,0,615,0,No
4,2,4,0,0,5,0,0,0,0,0,0,0,1054,0,No
5,2,5,0,0,3,0,0,0,0,0,0,0,1054,0,No
5,4,5,0,0,3,0,0,0,0,0,0,0,1054,0,No
8,2,12,0,0,3,0,0,0,0,0,0,0,1054,0,Yes
5,2,7,0,0,3,0,0,0,0,0,0,0,1043,0,No
5,2,7,0,0,3,0,0,0,0,0,0,0,1043,0,No
4,5,9,0,0,3,0,0,0,0,0,0,0,1043,0,No
5,2,7,0,0,3,0,0,0,0,0,0,0,1043,0,No
5,6,8,0,0,3,0,0,0,0,0,0,0,1043,0,No
6,5,9,0,0,3,0,0,0,0,0,0,0,1043,0,No
5,4,8,0,0,3,0,0,0,0,0,0,0,417,0,No
5,6,8,0,0,3,0,0,0,0,0,0,0,978,0,No
4,3,4,0,0,3,0,0,0,0,0,0,0,511,0,No
8,6,14,0,0,3,0,0,0,0,0,0,0,584,0,No
7,3,10,0,0,3,0,0,0,0,0,0,0,409,0,Yes
8,4,12,0,0,3,0,0,0,0,0,0,0,409,0,No
5,6,8,0,0,3,0,0,0,0,0,0,0,1043,0,No
13,8,23,0,0,4,0,0,0,0,0,0,0,1043,0,Yes
9,7,14,0,0,3,0,0,0,0,0,0,0,1043,0,No
4,3,4,0,0,3,0,0,0,0,0,0,0,511,0,No
5,2,7,0,0,3,0,0,0,0,0,0,0,1043,0,No
5,6,8,0,0,3,0,0,0,0,0,0,0,1043,0,No
2,2,2,0,1,3,0,0,0,0,0,0,0,1025,0,No
1,2,2,0,0,3,0,0,0,0,0,0,0,1054,0,No
1,3,6,0,0,4,0,0,0,0,0,0,0,1054,0,No
1,2,2,0,0,3,0,0,0,0,0,0,0,1025,0,No
0,1,0,0,0,3,0,0,0,0,0,0,0,1054,0,No
0,0,0,0,0,3,0,0,0,0,0,0,0,1054,0,No
1,1,1,0,0,3,0,0,0,0,0,0,0,1025,0,No
0,0,0,0,0,3,0,0,0,0,0,0,0,850,0,No
0,0,0,0,0,3,0,0,0,0,0,0,0,850,0,No
0,0,0,0,0,3,0,0,0,0,0,0,0,850,0,No
1,0,2,0,0,3,0,0,0,0,0,0,0,850,0,No
0,0,0,0,0,3,0,0,0,0,0,0,0,850,0,No
4,1,7,0,0,3,0,0,0,0,0,0,0,850,0,No
0,0,0,0,0,3,0,0,0,0,0,0,0,615,0,No
0,0,0,0,0,3,0,0,0,0,0,0,0,850,0,No
0,0,0,0,0,3,0,0,0,0,0,0,0,615,0,No
0,0,0,0,0,3,0,0,0,0,0,0,0,615,0,No
0,0,0,0,0,3,0,0,0,0,0,0,0,615,0,No
0,0,0,0,0,3,0,0,0,0,0,0,0,850,0,No
0,0,0,0,0,3,0,0,0,0,0,0,0,850,0,No
0,0,0,0,0,3,0,0,0,0,0,0,0,615,0,No
0,0,0,0,0,3,0,0,0,0,0,0,0,850,0,No
0,0,0,0,0,3,0,0,0,0,0,0,0,850,0,No
0,0,0,0,0,3,0,0,0,0,0,0,0,1015,0,No
12,2,58,0,0,3,0,0,0,0,0,0,0,571,0,No
0,0,0,0,0,3,0,0,0,0,0,0,0,1015,0,No
0,0,0,0,0,3,0,0,0,0,0,0,0,1015,0,No
12,1,32,0,1,4,0,0,0,0,0,0,0,969,0,No
1,0,1,0,0,3,0,0,0,0,0,0,0,1054,0,No
0,0,0,0,0,3,0,0,0,0,0,0,0,1015,0,No
5,3,6,0,0,3,0,0,0,0,0,0,0,615,0,No
0,0,0,0,0,3,0,0,0,0,0,0,0,615,0,No
2,1,2,0,0,4,0,0,0,0,0,0,0,409,0,No
0,1,0,0,0,3,0,0,0,0,0,0,0,615,0,No
1,1,10,0,0,1,0,0,0,0,0,0,0,384,0,No
2,7,3,0,0,3,0,0,0,0,0,0,0,833,0,No
5,9,9,0,0,4,0,0,0,0,0,0,0,1006,0,No
0,0,0,0,0,3,0,0,0,0,0,0,0,1015,0,No
8,21,20,0,0,5,0,0,0,0,0,0,0,992,0,No
8,13,27,0,0,4,0,0,0,0,0,0,0,983,0,Yes
5,9,9,0,0,4,0,0,0,0,0,0,0,1011,0,No
1,0,1,0,0,3,0,0,0,0,0,0,0,1054,0,No
8,12,15,0,0,5,0,0,0,0,0,0,0,501,0,No
5,9,9,0,0,5,0,0,0,0,0,0,0,689,0,No
3,7,3,0,1,3,0,0,0,0,0,0,0,504,0,No
2,2,2,0,0,3,0,0,0,0,0,0,0,979,0,No
3,9,22,0,0,4,0,0,0,0,0,0,0,994,0,No
4,7,7,0,0,3,0,0,0,0,0,0,0,1006,0,No
3,2,3,0,0,4,0,0,0,0,0,0,0,511,0,No
4,10,9,0,0,3,0,0,0,0,0,0,0,1006,0,No
8,0,10,0,0,3,0,0,0,0,0,0,0,1021,0,No
6,7,10,0,0,4,0,0,0,0,0,0,0,501,0,No
0,0,0,0,0,3,0,0,0,0,0,0,0,1015,0,No
3,6,9,0,0,3,0,0,0,0,0,0,0,830,0,No
2,0,2,0,0,3,0,0,0,0,0,0,0,1054,0,No
3,3,18,0,0,5,0,0,0,0,0,0,0,549,0,No
2,0,8,0,0,3,0,0,0,0,0,0,0,417,0,No
4,10,20,0,0,3,0,0,0,0,0,0,0,615,0,No
5,0,5,0,0,1,0,0,0,0,0,0,0,40,0,No
14,0,18,0,0,4,0,0,0,0,0,0,0,438,0,No
13,7,13,0,2,4,0,0,0,0,0,0,0,522,0,No
15,8,19,0,3,5,0,0,0,0,0,0,0,539,0,No
0,0,0,0,0,3,0,0,0,0,0,0,0,615,0,No
9,1,9,0,1,3,0,0,0,0,0,0,0,504,0,No
2,3,2,0,0,3,0,0,0,0,0,0,0,528,0,No
1,1,1,0,0,4,0,0,0,0,0,0,0,615,0,No
1,3,1,0,0,4,0,0,0,0,0,0,0,528,0,No
1,2,2,0,1,4,0,0,0,0,0,0,0,528,0,No
1,2,1,0,0,3,0,0,0,0,0,0,0,528,0,No
1,1,1,0,0,3,0,0,0,0,0,0,0,615,0,No
1,0,1,0,0,3,0,0,0,0,0,0,0,615,0,No
4,0,4,0,0,3,0,0,0,0,0,0,0,615,0,No
13,4,16,0,0,4,0,0,0,0,0,0,0,516,0,No
1,4,1,0,0,4,0,0,0,0,0,0,0,528,0,No
0,0,0,0,0,3,0,0,0,0,0,0,0,1015,0,No
1,0,16,0,0,3,0,0,0,0,0,0,0,433,0,No
1,0,2,0,0,4,0,0,0,0,0,0,0,1064,0,No
2,0,2,0,0,4,0,0,0,0,0,0,0,440,0,No
8,6,9,0,2,2,0,0,0,0,0,0,0,91,0,No
12,7,15,0,0,3,0,0,0,0,0,0,0,91,0,No
2,3,2,0,0,4,0,0,0,0,0,0,0,1064,0,No
4,5,14,0,0,2,0,0,0,0,0,0,0,91,0,No
5,3,5,0,0,3,0,0,0,0,0,0,0,86,0,No
9,8,24,0,1,4,0,0,0,0,0,0,0,87,0,No
12,6,13,0,2,3,0,0,0,0,0,0,0,90,0,No
10,9,12,0,1,3,0,0,0,0,0,0,0,90,0,No
13,5,13,0,0,2,0,0,0,0,0,0,0,92,0,No
6,8,13,0,1,3,0,0,0,0,0,0,0,86,0,No
1,0,1,0,0,4,0,0,0,0,0,0,0,1064,0,No
4,2,8,0,1,5,0,0,0,0,0,0,0,1064,0,No
6,3,9,0,0,3,0,0,0,0,0,0,0,85,0,No
25,8,25,0,1,4,0,0,0,0,0,0,0,92,0,No
5,3,5,0,1,1,0,0,0,0,0,0,0,48,0,No
3,3,3,0,0,5,0,0,0,0,0,0,0,1064,0,No
3,0,3,0,0,4,0,0,0,0,0,0,0,1064,0,No
0,0,0,0,0,5,0,0,0,0,0,0,0,625,0,No
0,1,0,0,0,4,0,0,0,0,0,0,0,625,0,No
0,0,0,0,0,4,0,0,0,0,0,0,0,625,0,No
35,1,42,0,0,5,0,0,0,0,0,0,0,980,0,No
11,1,12,0,0,4,0,0,0,0,0,0,0,980,0,No
2,1,2,0,0,4,0,0,0,0,0,0,0,1064,0,No
25,0,38,0,0,4,0,0,0,0,0,0,0,1000,0,No
2,1,2,0,0,5,0,0,0,0,0,0,0,625,0,No
1,0,1,0,0,4,0,0,0,0,0,0,0,419,0,No
12,1,14,0,0,3,0,0,0,0,0,0,0,394,0,No
10,3,10,0,0,5,0,0,0,0,0,0,0,419,0,No
7,1,11,0,0,4,0,0,0,0,0,0,0,911,0,No
3,1,3,0,0,4,0,0,0,0,0,0,0,1021,0,No
3,1,3,0,0,4,0,0,0,0,0,0,0,1064,0,No
1,0,1,0,0,4,0,0,0,0,0,0,0,1025,0,No
8,3,8,0,1,3,0,0,0,0,0,0,0,91,0,No
12,6,12,0,0,3,0,0,0,0,0,0,0,91,0,Yes
2,1,2,0,0,4,0,0,0,0,0,0,0,1064,0,No
0,0,0,0,0,5,0,0,0,0,0,0,0,1025,0,No
7,3,7,0,1,3,0,0,0,0,0,0,0,87,0,Yes
12,3,12,0,1,3,0,0,0,0,0,0,0,90,0,No
2,0,2,0,0,5,0,0,0,0,0,0,0,1064,0,No
10,6,10,0,0,3,0,0,0,0,0,0,0,90,0,No
13,3,13,0,0,3,0,0,0,0,0,0,0,92,0,Yes
5,3,5,0,0,3,0,0,0,0,0,0,0,86,0,No
14,8,14,0,0,4,0,0,0,0,0,0,0,87,0,Yes
25,6,25,0,1,5,0,0,0,0,0,0,0,92,0,Yes
5,2,5,0,1,5,0,0,0,0,0,0,0,1064,0,No
3,2,3,0,0,3,0,0,0,0,0,0,0,91,0,No
10,1,14,0,0,4,0,0,0,0,0,0,0,902,0,No
2,1,2,0,0,4,0,0,0,0,0,0,0,1064,0,No
2,2,2,0,0,4,0,0,0,0,0,0,0,1064,0,No
6,1,8,0,0,2,0,0,0,0,0,0,0,23,0,No
4,1,4,0,0,4,0,0,0,0,0,0,0,1064,0,No
14,2,14,46,0,4,28,28,10,10,7,26,39,1002,0,No
5,1,7,0,1,5,0,0,0,0,0,0,0,440,0,No
3,1,3,0,0,5,0,0,0,0,0,0,0,1064,0,No
2,0,2,0,0,4,0,0,0,0,0,0,0,1021,0,No
3,1,3,0,0,1,0,0,0,0,0,0,0,92,0,No
3,1,3,0,0,4,0,0,0,0,0,0,0,1064,0,No
4,2,4,0,0,4,0,0,0,0,0,0,0,1064,0,No
3,1,3,0,0,4,0,0,0,0,0,0,0,1064,0,No
16,3,16,0,0,5,0,0,0,0,0,0,0,1009,0,No
24,4,27,0,0,6,0,0,0,0,0,0,0,521,0,No
2,2,2,0,0,4,0,0,0,0,0,0,0,1064,0,No
6,2,6,0,0,4,0,0,0,0,0,0,0,1064,0,No
3,1,3,0,0,1,0,0,0,0,0,0,0,92,0,No
8,2,8,0,0,5,0,0,0,0,0,0,0,416,0,No
18,3,18,0,0,4,0,0,0,0,0,0,0,902,0,No
2,0,2,0,0,4,0,0,0,0,0,0,0,625,0,No
24,4,32,0,0,5,0,0,0,0,0,0,0,419,0,No
42,4,42,0,1,4,0,0,0,0,0,0,0,1000,0,No
12,0,16,0,0,5,0,0,0,0,0,0,0,1064,0,No
18,1,19,0,0,6,0,0,0,0,0,0,0,1064,0,No
3,1,3,0,0,1,0,0,0,0,0,0,0,92,0,No
2,2,2,0,0,4,0,0,0,0,0,0,0,1064,0,No
18,0,18,0,0,4,0,0,0,0,0,0,0,625,0,No
2,0,2,0,0,4,0,0,0,0,0,0,0,902,0,No
12,1,16,0,0,6,0,0,0,0,0,0,0,902,0,No
1,0,1,0,0,5,0,0,0,0,0,0,0,1064,0,No
3,1,3,0,0,4,0,0,0,0,0,0,0,1064,0,No
2,0,2,0,0,5,0,0,0,0,0,0,0,1064,0,No
4,1,4,0,0,4,0,0,0,0,0,0,0,625,0,No
20,2,21,0,0,4,0,0,0,0,0,0,0,527,0,No
20,1,24,0,0,4,0,0,0,0,0,0,0,1025,0,No
5,3,9,0,0,2,0,0,0,0,0,0,0,378,0,No
1,0,1,0,0,4,0,0,0,0,0,0,0,1025,0,No
0,0,0,0,1,1,0,0,0,0,0,0,0,45,0,No
48,1,52,0,0,5,0,0,0,0,0,0,0,594,0,No
0,0,0,0,0,4,0,0,0,0,0,0,0,1025,0,No
0,0,0,0,0,4,0,0,0,0,0,0,0,1025,0,No
10,2,11,0,0,7,0,0,0,0,0,0,0,1025,0,No
2,0,9,0,0,4,0,0,0,0,0,0,0,427,0,No
1,0,1,0,0,4,0,0,0,0,0,0,0,1025,0,No
0,0,0,0,0,4,0,0,0,0,0,0,0,1025,0,No
0,0,0,0,0,4,0,0,0,0,0,0,0,625,0,No
0,0,0,0,0,4,0,0,0,0,0,0,0,1025,0,No
11,11,53,0,0,6,0,0,0,0,0,0,0,507,0,No
7,1,14,0,2,5,0,0,0,0,0,0,0,1009,0,No
8,1,8,0,0,5,0,0,0,0,0,0,0,1009,0,No
8,13,18,0,0,6,0,0,0,0,0,0,0,1025,0,No
13,31,14,0,1,7,0,0,0,0,0,0,0,1025,0,No
3,0,3,0,0,2,0,0,0,0,0,0,0,226,0,No
0,0,0,0,0,3,0,0,0,0,0,0,0,1025,0,No
6,1,10,0,0,4,0,0,0,0,0,0,0,406,0,No
2,0,2,0,0,5,0,0,0,0,0,0,0,625,0,No
1,6,3,0,1,4,0,0,0,0,0,0,0,694,0,No
2,0,3,0,0,3,0,0,0,0,0,0,0,1064,0,No
2,0,7,0,1,5,0,0,0,0,0,0,0,744,0,No
7,0,7,0,0,3,0,0,0,0,0,0,0,1064,0,No
2,0,8,0,0,6,0,0,0,0,0,0,0,853,0,No
2,0,4,0,0,1,0,0,0,0,0,0,0,63,0,No
4,1,4,0,0,3,0,0,0,0,0,0,0,1025,0,No
2,3,2,0,0,4,0,0,0,0,0,0,0,694,0,No
1,2,1,0,1,4,0,0,0,0,0,0,0,1025,0,No
4,2,4,0,0,1,0,0,0,0,0,0,0,23,0,No
3,5,13,0,0,1,0,0,0,0,0,0,0,29,0,No
2,9,5,0,2,4,0,0,0,0,0,0,0,419,0,No
0,0,0,0,0,3,0,0,0,0,0,0,0,1025,0,No
0,0,0,0,0,3,0,0,0,0,0,0,0,625,0,No
0,0,0,0,0,3,0,0,0,0,0,0,0,1025,0,No
0,3,0,0,1,6,0,0,0,0,0,0,0,514,0,No
0,2,0,0,1,4,0,0,0,0,0,0,0,694,0,No
3,2,3,0,0,4,0,0,0,0,0,0,0,406,0,No
1,3,1,0,0,4,0,0,0,0,0,0,0,694,0,No
1,2,1,0,0,6,0,0,0,0,0,0,0,624,0,No
1,6,2,0,1,6,0,0,0,0,0,0,0,624,0,No
11,12,16,0,1,7,0,0,0,0,0,0,0,1025,0,Yes
2,3,2,0,0,5,0,0,0,0,0,0,0,694,0,No
2,1,2,0,0,4,0,0,0,0,0,0,0,694,0,No
0,3,0,0,0,5,0,0,0,0,0,0,0,419,0,No
8,7,12,0,2,5,0,0,0,0,0,0,0,692,0,No
2,0,2,0,0,4,0,0,0,0,0,0,0,1025,0,No
11,13,29,0,1,5,0,0,0,0,0,0,0,609,0,No
19,10,36,0,0,3,0,0,0,0,0,0,0,157,0,No
3,3,3,0,0,3,0,0,0,0,0,0,0,105,0,No
1,7,1,0,2,5,0,0,0,0,0,0,0,510,0,No
3,6,4,0,2,5,0,0,0,0,0,0,0,157,0,No
1,5,2,0,0,6,0,0,0,0,0,0,0,521,0,No
3,5,5,0,1,5,0,0,0,0,0,0,0,1025,0,Yes
10,10,24,0,2,5,0,0,0,0,0,0,0,692,0,No
7,6,7,0,1,6,0,0,0,0,0,0,0,1064,0,Yes
3,2,3,0,2,6,0,0,0,0,0,0,0,524,0,No
2,2,2,0,1,5,0,0,0,0,0,0,0,821,0,No
1,1,1,0,0,5,0,0,0,0,0,0,0,1064,0,No
6,2,6,0,0,6,0,0,0,0,0,0,0,973,0,No
2,0,2,0,0,4,0,0,0,0,0,0,0,1025,0,No
7,8,9,0,0,6,0,0,0,0,0,0,0,973,0,No
7,7,7,0,0,6,0,0,0,0,0,0,0,514,0,No
11,5,12,0,0,6,0,0,0,0,0,0,0,406,0,Yes
7,7,10,0,0,6,0,0,0,0,0,0,0,994,0,No
11,10,11,0,0,7,0,0,0,0,0,0,0,994,0,Yes
19,11,32,0,1,7,0,0,0,0,0,0,0,1064,0,No
17,13,23,0,0,8,0,0,0,0,0,0,0,889,0,Yes
5,5,5,0,0,8,0,0,0,0,0,0,0,507,0,No
14,13,16,0,1,7,0,0,0,0,0,0,0,1015,0,Yes
2,4,2,0,0,6,0,0,0,0,0,0,0,821,0,No
4,0,4,0,0,1,0,0,0,0,0,0,0,406,0,No
2,1,3,0,1,1,0,0,0,0,0,0,0,45,0,No
2,1,3,0,1,3,0,0,0,0,0,0,0,744,0,No
2,0,2,0,1,3,0,0,0,0,0,0,0,744,0,No
3,1,4,0,0,1,0,0,0,0,0,0,0,23,0,No
1,2,10,0,1,4,0,0,0,0,0,0,0,511,0,No
0,0,0,0,0,4,0,0,0,0,0,0,0,1025,0,No
0,0,0,0,0,4,0,0,0,0,0,0,0,1025,0,No
3,0,3,0,0,5,0,0,0,0,0,0,0,514,0,No
1,1,2,0,0,4,0,0,0,0,0,0,0,514,0,No
1,2,3,0,0,4,0,0,0,0,0,0,0,514,0,No
1,0,1,0,0,4,0,0,0,0,0,0,0,1025,0,No
22,3,53,0,2,4,0,0,0,0,0,0,0,433,0,No
2,0,2,0,0,3,0,0,0,0,0,0,0,783,0,No
1,0,1,0,0,3,0,0,0,0,0,0,0,973,0,No
3,1,3,0,1,5,0,0,0,0,0,0,0,581,0,No
2,0,3,0,0,3,0,0,0,0,0,0,0,973,0,No
1,0,1,0,0,4,0,0,0,0,0,0,0,1025,0,No
0,0,0,0,0,3,0,0,0,0,0,0,0,1025,0,No
8,0,14,0,0,5,0,0,0,0,0,0,0,581,0,No
1,0,1,0,2,1,0,0,0,0,0,0,0,55,0,No
1,0,1,0,0,5,0,0,0,0,0,0,0,625,0,No
6,4,7,0,0,4,0,0,0,0,0,0,0,510,0,No
1,1,1,0,0,4,0,0,0,0,0,0,0,625,0,No
2,0,2,0,0,2,0,0,0,0,0,0,0,16,0,No
12,0,20,0,0,2,0,0,0,0,0,0,0,386,0,No
1,4,9,0,0,5,0,0,0,0,0,0,0,427,0,Yes
2,2,3,15,1,6,15,15,15,15,1,8,15,680,0,No
2,1,2,0,1,5,0,0,0,0,0,0,0,625,0,No
4,10,27,0,1,6,0,0,0,0,0,0,0,514,0,No
13,3,18,0,0,6,0,0,0,0,0,0,0,1018,0,No
2,0,2,0,0,3,0,0,0,0,0,0,0,1025,0,No
25,0,42,0,1,4,0,0,0,0,0,0,0,1018,0,No
6,2,6,0,0,6,0,0,0,0,0,0,0,1038,0,No
8,0,13,0,0,5,0,0,0,0,0,0,0,419,0,No
17,2,24,0,0,5,0,0,0,0,0,0,0,1009,0,No
8,0,10,0,0,5,0,0,0,0,0,0,0,699,0,No
0,1,0,0,0,5,0,0,0,0,0,0,0,1018,0,No
4,1,4,0,0,4,0,0,0,0,0,0,0,1053,0,No
23,5,31,0,0,5,0,0,0,0,0,0,0,521,0,No
16,1,17,0,0,5,0,0,0,0,0,0,0,514,0,No
0,1,0,0,0,4,0,0,0,0,0,0,0,1018,0,No
6,4,6,2,2,5,1,1,0,0,1,8,15,594,0,No
18,5,18,0,0,5,0,0,0,0,0,0,0,902,0,No
6,1,8,0,0,4,0,0,0,0,0,0,0,419,0,No
5,2,7,2,0,4,1,1,0,0,1,8,15,419,0,No
8,1,8,0,0,5,0,0,0,0,0,0,0,625,0,No
0,1,0,0,0,5,0,0,0,0,0,0,0,1018,0,No
19,4,21,3,0,7,2,2,1,1,1,8,15,625,0,No
4,0,4,0,0,3,0,0,0,0,0,0,0,1064,0,No
6,2,6,0,0,4,0,0,0,0,0,0,0,1053,0,No
5,0,10,0,0,4,0,0,0,0,0,0,0,902,0,No
4,0,4,0,0,3,0,0,0,0,0,0,0,902,0,No
8,4,11,0,0,4,0,0,0,0,0,0,0,511,0,No
11,4,19,0,0,5,0,0,0,0,0,0,0,1018,0,No
5,3,7,0,0,5,0,0,0,0,0,0,0,860,0,No
3,2,4,0,0,5,0,0,0,0,0,0,0,1064,0,No
4,3,6,0,0,5,0,0,0,0,0,0,0,1018,0,No
0,1,0,0,0,4,0,0,0,0,0,0,0,1018,0,No
0,1,0,0,0,4,0,0,0,0,0,0,0,1018,0,No
5,3,7,0,0,6,0,0,0,0,0,0,0,1018,0,No
0,1,0,0,0,4,0,0,0,0,0,0,0,1018,0,No
24,7,36,0,0,6,0,0,0,0,0,0,0,988,0,No
0,0,0,0,0,3,0,0,0,0,0,0,0,1025,0,No
11,4,19,0,0,5,0,0,0,0,0,0,0,1018,0,No
5,3,7,0,0,5,0,0,0,0,0,0,0,860,0,No
3,2,4,0,0,5,0,0,0,0,0,0,0,1064,0,No
4,3,6,0,0,5,0,0,0,0,0,0,0,1018,0,No
0,1,0,0,0,4,0,0,0,0,0,0,0,1018,0,No
3,2,5,0,0,5,0,0,0,0,0,0,0,1064,0,No
0,1,0,0,0,4,0,0,0,0,0,0,0,1018,0,No
5,3,8,0,0,6,0,0,0,0,0,0,0,1018,0,No
0,1,0,0,0,4,0,0,0,0,0,0,0,1018,0,No
45,13,84,0,0,5,0,0,0,0,0,0,0,1018,0,No
11,4,19,0,0,5,0,0,0,0,0,0,0,1018,0,No
5,3,7,0,0,5,0,0,0,0,0,0,0,860,0,No
3,2,4,0,0,5,0,0,0,0,0,0,0,1064,0,No
4,3,6,0,0,5,0,0,0,0,0,0,0,1018,0,No
0,2,0,0,0,4,0,0,0,0,0,0,0,1018,0,No
3,2,5,0,0,5,0,0,0,0,0,0,0,1064,0,No
0,2,0,0,0,4,0,0,0,0,0,0,0,1018,0,No
5,3,8,0,0,6,0,0,0,0,0,0,0,1018,0,No
0,2,0,0,0,4,0,0,0,0,0,0,0,1018,0,No
5,2,5,0,0,4,0,0,0,0,0,0,0,1064,0,No
5,2,5,0,0,4,0,0,0,0,0,0,0,1064,0,No
4,5,4,0,0,6,0,0,0,0,0,0,0,1064,0,No
4,3,4,0,0,6,0,0,0,0,0,0,0,1064,0,Yes
5,2,5,0,0,4,0,0,0,0,0,0,0,1064,0,No
4,2,4,0,0,4,0,0,0,0,0,0,0,1064,0,No
2,1,2,0,0,5,0,0,0,0,0,0,0,1025,0,No
4,1,4,0,0,3,0,0,0,0,0,0,0,1025,0,No
5,2,5,0,0,4,0,0,0,0,0,0,0,1064,0,No
5,4,5,0,0,4,0,0,0,0,0,0,0,1064,0,No
6,3,6,0,0,4,0,0,0,0,0,0,0,1064,0,No
5,3,5,0,0,4,0,0,0,0,0,0,0,1064,0,No
5,4,5,0,0,4,0,0,0,0,0,0,0,1064,0,No
1,0,1,0,0,4,0,0,0,0,0,0,0,1025,0,No
0,0,0,0,0,5,0,0,0,0,0,0,0,1025,0,No
4,2,4,0,0,4,0,0,0,0,0,0,0,625,0,No
8,5,8,0,1,4,0,0,0,0,0,0,0,1025,0,No
7,2,7,0,0,4,0,0,0,0,0,0,0,1064,0,Yes
7,3,7,0,0,4,0,0,0,0,0,0,0,1064,0,No
6,4,6,0,0,4,0,0,0,0,0,0,0,1064,0,No
5,4,5,0,0,4,0,0,0,0,0,0,0,1064,0,No
10,3,10,0,0,4,0,0,0,0,0,0,0,1064,0,Yes
8,3,8,0,0,4,0,0,0,0,0,0,0,1064,0,No
13,5,13,0,0,6,0,0,0,0,0,0,0,1064,0,Yes
4,2,4,0,0,4,0,0,0,0,0,0,0,625,0,No
5,2,5,0,0,4,0,0,0,0,0,0,0,1064,0,No
5,4,5,0,0,4,0,0,0,0,0,0,0,1064,0,No
8,2,12,0,0,4,0,0,0,0,0,0,0,1064,0,Yes
5,2,7,0,0,4,0,0,0,0,0,0,0,1053,0,No
5,2,7,0,0,4,0,0,0,0,0,0,0,1053,0,No
4,6,9,0,0,5,0,0,0,0,0,0,0,1053,0,No
5,2,7,0,0,4,0,0,0,0,0,0,0,1053,0,No
5,7,8,0,0,4,0,0,0,0,0,0,0,1053,0,No
6,5,9,0,0,4,0,0,0,0,0,0,0,1053,0,No
5,4,8,0,0,4,0,0,0,0,0,0,0,427,0,No
5,6,7,0,0,4,0,0,0,0,0,0,0,988,0,No
4,3,4,0,0,4,0,0,0,0,0,0,0,521,0,No
8,6,14,0,0,4,0,0,0,0,0,0,0,594,0,No
7,3,10,0,0,4,0,0,0,0,0,0,0,419,0,Yes
8,4,12,0,0,4,0,0,0,0,0,0,0,419,0,No
6,14,23,0,0,6,0,0,0,0,0,0,0,1009,0,No
21,15,45,0,0,6,0,0,0,0,0,0,0,1053,0,Yes
5,7,8,0,0,4,0,0,0,0,0,0,0,1053,0,No
11,6,21,0,0,5,0,0,0,0,0,0,0,1053,0,Yes
9,7,14,0,0,4,0,0,0,0,0,0,0,1053,0,No
15,11,32,0,0,9,0,0,0,0,0,0,0,808,0,Yes
4,3,4,0,0,4,0,0,0,0,0,0,0,521,0,No
5,2,7,0,0,4,0,0,0,0,0,0,0,1053,0,No
5,7,8,0,0,4,0,0,0,0,0,0,0,1053,0,No
2,2,2,0,0,4,0,0,0,0,0,0,0,1035,0,No
1,2,2,6,0,5,3,3,0,0,1,1,2,1064,0,No
1,3,6,0,0,6,0,0,0,0,0,0,0,1064,0,No
1,2,2,6,0,5,5,5,4,4,1,1,2,1035,0,No
0,1,0,0,0,5,0,0,0,0,0,0,0,1064,0,No
0,0,0,0,0,3,0,0,0,0,0,0,0,1064,0,No
1,1,1,0,0,3,0,0,0,0,0,0,0,1035,0,No
0,0,0,0,0,4,0,0,0,0,0,0,0,860,0,No
0,0,0,0,0,4,0,0,0,0,0,0,0,860,0,No
0,0,0,6,0,4,3,3,0,0,7,26,39,860,0,No
0,0,0,0,0,4,0,0,0,0,0,0,0,860,0,No
1,0,2,0,0,4,0,0,0,0,0,0,0,860,0,No
0,0,0,0,0,4,0,0,0,0,0,0,0,860,0,No
4,1,7,0,0,4,0,0,0,0,0,0,0,860,0,No
0,0,0,0,0,4,0,0,0,0,0,0,0,625,0,No
0,0,0,0,0,4,0,0,0,0,0,0,0,860,0,No
0,0,0,0,0,4,0,0,0,0,0,0,0,625,0,No
0,0,0,0,0,4,0,0,0,0,0,0,0,625,0,No
0,0,0,0,0,4,0,0,0,0,0,0,0,625,0,No
0,0,0,0,0,4,0,0,0,0,0,0,0,860,0,No
0,0,0,0,0,4,0,0,0,0,0,0,0,625,0,No
0,0,0,0,0,4,0,0,0,0,0,0,0,860,0,No
0,0,0,0,0,5,0,0,0,0,0,0,0,860,0,No
0,0,0,0,0,4,0,0,0,0,0,0,0,860,0,No
1,3,23,0,2,7,0,0,0,0,0,0,0,524,0,No
0,0,0,0,0,4,0,0,0,0,0,0,0,1025,0,No
12,2,58,0,0,7,0,0,0,0,0,0,0,581,0,No
0,0,0,0,0,4,0,0,0,0,0,0,0,1025,0,No
0,0,0,0,0,5,0,0,0,0,0,0,0,1025,0,No
1,1,1,0,1,6,0,0,0,0,0,0,0,524,0,No
16,4,16,0,0,3,0,0,0,0,0,0,0,77,0,No
4,3,4,0,0,4,0,0,0,0,0,0,0,108,0,No
2,2,2,0,0,5,0,0,0,0,0,0,0,1025,0,No
16,1,46,0,0,5,0,0,0,0,0,0,0,979,0,No
1,0,1,0,0,4,0,0,0,0,0,0,0,1064,0,No
1,1,1,0,0,4,0,0,0,0,0,0,0,416,0,No
4,2,4,15,0,2,9,9,3,3,1,2,3,164,0,No
0,0,0,0,0,6,0,0,0,0,0,0,0,1025,0,No
1,4,3,0,0,4,0,0,0,0,0,0,0,142,0,No
2,8,11,0,0,3,0,0,0,0,0,0,0,120,0,Yes
0,0,0,0,0,3,0,0,0,0,0,0,0,1025,0,No
0,0,0,0,0,3,0,0,0,0,0,0,0,1025,0,No
4,5,5,0,1,4,0,0,0,0,0,0,0,625,0,No
0,0,0,0,0,4,0,0,0,0,0,0,0,625,0,No
2,1,2,0,0,5,0,0,0,0,0,0,0,419,0,No
0,1,0,0,0,4,0,0,0,0,0,0,0,625,0,No
1,2,10,0,1,2,0,0,0,0,0,0,0,394,0,No
2,7,3,0,0,4,0,0,0,0,0,0,0,843,0,No
5,13,11,0,1,6,0,0,0,0,0,0,0,1016,0,No
11,27,27,0,0,7,0,0,0,0,0,0,0,993,0,Yes
5,13,11,0,1,6,0,0,0,0,0,0,0,1021,0,No
1,0,1,0,0,4,0,0,0,0,0,0,0,1064,0,No
8,13,15,0,0,7,0,0,0,0,0,0,0,511,0,No
5,13,11,0,1,7,0,0,0,0,0,0,0,699,0,No
9,9,9,0,0,5,0,0,0,0,0,0,0,514,0,No
2,2,2,0,0,4,0,0,0,0,0,0,0,989,0,No
4,9,31,24,0,6,18,18,12,12,7,26,39,1004,0,No
4,6,7,0,0,4,0,0,0,0,0,0,0,1016,0,No
3,2,3,0,0,5,0,0,0,0,0,0,0,521,0,No
3,15,29,0,0,5,0,0,0,0,0,0,0,580,0,Yes
13,23,55,6,1,6,3,3,0,0,1,8,15,1002,0,Yes
4,10,9,7,0,4,0,0,-7,0,7,26,39,1016,0,No
8,0,10,0,0,4,0,0,0,0,0,0,0,1031,0,No
6,8,10,0,0,6,0,0,0,0,0,0,0,511,0,No
4,2,4,0,0,5,0,0,0,0,0,0,0,699,0,No
2,2,4,0,0,4,0,0,0,0,0,0,0,213,0,No
1,1,3,47,0,1,47,47,47,47,1,8,15,2,0,No
3,7,11,0,1,4,0,0,0,0,0,0,0,840,0,No
10,8,10,4,1,4,2,2,0,0,1,7,13,76,0,No
13,9,14,0,0,5,0,0,0,0,0,0,0,75,0,Yes
1,0,1,0,0,6,0,0,0,0,0,0,0,1064,0,No
32,0,32,0,0,3,0,0,0,0,0,0,0,76,0,No
2,4,2,0,0,5,0,0,0,0,0,0,0,1064,0,No
6,4,6,0,0,2,0,0,0,0,0,0,0,70,0,Yes
8,10,22,0,1,4,0,0,0,0,0,0,0,71,0,Yes
14,9,15,0,0,3,0,0,0,0,0,0,0,70,0,Yes
11,10,11,0,0,5,0,0,0,0,0,0,0,75,0,No
14,7,14,0,0,2,0,0,0,0,0,0,0,69,0,Yes
6,11,21,0,0,4,0,0,0,0,0,0,0,72,0,No
16,17,24,0,0,5,0,0,0,0,0,0,0,65,0,Yes
7,5,10,0,0,2,0,0,0,0,0,0,0,70,0,Yes
26,10,26,0,1,4,0,0,0,0,0,0,0,66,0,Yes
5,4,5,0,1,6,0,0,0,0,0,0,0,1064,0,No
1,1,1,0,1,6,0,0,0,0,0,0,0,1025,0,No
15,3,20,0,0,6,0,0,0,0,0,0,0,517,0,No
7,22,27,0,1,4,0,0,0,0,0,0,0,101,0,No
3,0,3,0,0,3,0,0,0,0,0,0,0,1064,0,No
13,1,16,0,2,1,0,0,0,0,0,0,0,35,0,No
0,0,0,0,0,5,0,0,0,0,0,0,0,1025,0,No
4,1,16,3,1,4,2,2,1,1,1,8,15,213,0,No
4,10,20,0,0,4,0,0,0,0,0,0,0,625,0,No
1,0,5,61,0,1,61,61,61,61,1,4,5,8,0,Yes
5,1,15,0,1,2,0,0,0,0,0,0,0,50,0,No
6,1,6,0,1,2,0,0,0,0,0,0,0,50,0,No
5,0,5,0,0,4,0,0,0,0,0,0,0,1064,0,No
2,1,4,0,0,4,0,0,0,0,0,0,0,496,0,No
14,0,18,0,1,5,0,0,0,0,0,0,0,448,0,No
8,3,8,0,1,4,0,0,0,0,0,0,0,142,0,No
0,1,0,0,1,5,0,0,0,0,0,0,0,625,0,No
3,0,3,0,1,6,0,0,0,0,0,0,0,1025,0,No
9,1,9,0,1,4,0,0,0,0,0,0,0,514,0,No
0,0,0,0,0,3,0,0,0,0,0,0,0,1025,0,No
5,9,5,0,0,4,0,0,0,0,0,0,0,142,0,No
11,11,11,0,0,3,0,0,0,0,0,0,0,142,0,No
4,7,4,0,0,3,0,0,0,0,0,0,0,142,0,No
13,9,13,0,1,8,0,0,0,0,0,0,0,532,0,No
15,11,19,0,4,7,0,0,0,0,0,0,0,549,0,No
1,1,1,0,0,3,0,0,0,0,0,0,0,625,0,No
1,0,1,0,0,3,0,0,0,0,0,0,0,625,0,No
4,0,4,0,0,3,0,0,0,0,0,0,0,625,0,No
11,4,14,0,0,5,0,0,0,0,0,0,0,526,0,No
2,3,2,0,0,3,0,0,0,0,0,0,0,538,0,No
1,1,1,0,1,4,0,0,0,0,0,0,0,625,0,No
1,3,1,0,0,5,0,0,0,0,0,0,0,538,0,No
1,2,2,0,1,4,0,0,0,0,0,0,0,538,0,No
1,2,1,0,0,3,0,0,0,0,0,0,0,538,0,No
1,4,1,0,0,5,0,0,0,0,0,0,0,538,0,No
0,1,0,0,0,3,0,0,0,0,0,0,0,638,0,No
0,0,0,0,0,3,0,0,0,0,0,0,0,638,0,No
3,0,3,0,0,3,0,0,0,0,0,0,0,1077,0,No
1,0,2,0,0,4,0,0,0,0,0,0,0,1077,0,No
2,0,2,0,0,4,0,0,0,0,0,0,0,453,0,No
35,1,42,0,0,4,0,0,0,0,0,0,0,993,0,No
11,1,12,0,0,3,0,0,0,0,0,0,0,993,0,No
19,0,28,0,1,3,0,0,0,0,0,0,0,1013,0,No
13,0,17,0,0,4,0,0,0,0,0,0,0,993,0,No
2,1,2,0,0,3,0,0,0,0,0,0,0,638,0,No
1,0,1,0,0,3,0,0,0,0,0,0,0,432,0,No
12,1,14,0,0,1,0,0,0,0,0,0,0,407,0,No
10,3,10,0,0,3,0,0,0,0,0,0,0,432,0,No
7,1,11,0,0,3,0,0,0,0,0,0,0,924,0,No
3,1,3,0,0,3,0,0,0,0,0,0,0,1077,0,No
16,0,20,0,0,4,0,0,0,0,0,0,0,1044,0,No
10,1,14,0,0,3,0,0,0,0,0,0,0,915,0,No
2,2,2,0,0,3,0,0,0,0,0,0,0,1077,0,No
4,1,4,0,0,3,0,0,0,0,0,0,0,1077,0,No
12,2,12,0,0,3,0,0,0,0,0,0,0,1015,0,No
19,3,25,0,0,4,0,0,0,0,0,0,0,1017,0,No
5,1,7,0,0,4,0,0,0,0,0,0,0,453,0,No
4,1,4,0,0,3,0,0,0,0,0,0,0,1034,0,No
4,2,4,0,0,3,0,0,0,0,0,0,0,1077,0,No
24,4,27,0,0,4,0,0,0,0,0,0,0,534,0,No
16,1,17,0,1,3,0,0,0,0,0,0,0,527,0,No
2,2,2,0,0,3,0,0,0,0,0,0,0,1077,0,No
5,2,5,0,0,3,0,0,0,0,0,0,0,1077,0,No
8,2,8,0,0,4,0,0,0,0,0,0,0,429,0,No
14,2,14,0,0,3,0,0,0,0,0,0,0,915,0,No
3,1,3,0,0,3,0,0,0,0,0,0,0,638,0,No
24,2,32,0,0,3,0,0,0,0,0,0,0,432,0,No
36,4,36,0,0,3,0,0,0,0,0,0,0,1013,0,No
25,0,31,0,0,3,0,0,0,0,0,0,0,1006,0,No
8,0,12,0,0,3,0,0,0,0,0,0,0,1077,0,No
14,2,14,0,0,3,0,0,0,0,0,0,0,1022,0,No
20,2,21,0,0,4,0,0,0,0,0,0,0,1077,0,No
2,2,2,0,0,3,0,0,0,0,0,0,0,1077,0,No
16,0,16,0,0,3,0,0,0,0,0,0,0,638,0,No
2,0,2,0,0,3,0,0,0,0,0,0,0,915,0,No
12,1,16,0,0,3,0,0,0,0,0,0,0,915,0,No
10,3,13,0,0,3,0,0,0,0,0,0,0,524,0,No
2,1,2,0,0,3,0,0,0,0,0,0,0,1077,0,No
4,1,4,0,0,3,0,0,0,0,0,0,0,638,0,No
20,2,21,0,0,3,0,0,0,0,0,0,0,540,0,No
10,11,52,0,2,5,0,0,0,0,0,0,0,520,0,No
7,1,13,0,0,3,0,0,0,0,0,0,0,1022,0,No
8,1,8,0,0,3,0,0,0,0,0,0,0,1022,0,No
20,1,24,0,0,3,0,0,0,0,0,0,0,1038,0,No
0,0,0,0,0,3,0,0,0,0,0,0,0,1038,0,No
5,3,9,0,0,1,0,0,0,0,0,0,0,391,0,No
0,0,0,0,0,3,0,0,0,0,0,0,0,1038,0,No
1,0,1,0,0,3,0,0,0,0,0,0,0,1038,0,No
0,0,0,0,0,3,0,0,0,0,0,0,0,1038,0,No
48,1,52,0,0,4,0,0,0,0,0,0,0,607,0,No
1,0,1,0,0,3,0,0,0,0,0,0,0,1038,0,No
0,0,0,0,0,3,0,0,0,0,0,0,0,1038,0,No
0,0,0,0,0,3,0,0,0,0,0,0,0,1038,0,No
1,0,2,0,0,3,0,0,0,0,0,0,0,1038,0,No
0,0,0,0,0,3,0,0,0,0,0,0,0,1038,0,No
0,0,0,0,0,3,0,0,0,0,0,0,0,1038,0,No
4,1,6,0,0,4,0,0,0,0,0,0,0,1038,0,No
2,0,9,0,0,3,0,0,0,0,0,0,0,440,0,No
1,0,1,0,0,3,0,0,0,0,0,0,0,1038,0,No
0,0,0,0,0,3,0,0,0,0,0,0,0,1038,0,No
0,0,0,0,0,3,0,0,0,0,0,0,0,638,0,No
0,0,0,0,0,3,0,0,0,0,0,0,0,638,0,No
0,0,0,0,0,3,0,0,0,0,0,0,0,1038,0,No
6,12,16,0,0,4,0,0,0,0,0,0,0,1038,0,No
11,0,12,4,0,5,2,1,0,0,2,7,56,1038,0,No
0,0,0,0,0,3,0,0,0,0,0,0,0,1038,0,No
7,2,16,0,0,2,0,0,0,0,0,0,0,419,0,No
2,0,2,0,0,3,0,0,0,0,0,0,0,638,0,No
2,0,3,0,0,3,0,0,0,0,0,0,0,1077,0,No
2,0,7,0,1,3,0,0,0,0,0,0,0,757,0,No
4,3,8,0,1,3,0,0,0,0,0,0,0,530,0,No
2,0,8,0,0,4,0,0,0,0,0,0,0,866,0,No
1,1,1,0,0,3,0,0,0,0,0,0,0,1038,0,No
2,7,4,0,1,3,0,0,0,0,0,0,0,432,0,No
0,0,0,0,0,3,0,0,0,0,0,0,0,1038,0,No
0,0,0,0,0,3,0,0,0,0,0,0,0,638,0,No
0,0,0,0,0,3,0,0,0,0,0,0,0,1038,0,No
0,3,0,0,0,4,0,0,0,0,0,0,0,527,0,No
0,2,0,0,0,3,0,0,0,0,0,0,0,707,0,No
3,2,3,0,0,1,0,0,0,0,0,0,0,419,0,No
1,2,1,0,0,4,0,0,0,0,0,0,0,637,0,No
2,6,3,0,0,3,0,0,0,0,0,0,0,637,0,No
11,9,16,0,0,5,0,0,0,0,0,0,0,1038,0,Yes
2,3,2,0,0,3,0,0,0,0,0,0,0,707,0,No
2,1,2,0,0,3,0,0,0,0,0,0,0,707,0,No
0,3,0,0,0,3,0,0,0,0,0,0,0,432,0,No
8,7,12,0,0,4,0,0,0,0,0,0,0,705,0,No
1,0,1,0,0,3,0,0,0,0,0,0,0,1038,0,No
15,14,59,0,3,6,0,0,0,0,0,0,0,432,0,Yes
1,5,1,0,0,4,0,0,0,0,0,0,0,523,0,No
1,5,2,0,0,3,0,0,0,0,0,0,0,534,0,No
9,9,15,0,0,3,0,0,0,0,0,0,0,705,0,No
3,3,3,0,1,4,0,0,0,0,0,0,0,537,0,No
5,2,5,0,0,5,0,0,0,0,0,0,0,986,0,No
1,2,2,0,0,4,0,0,0,0,0,0,0,834,0,No
7,6,9,0,0,5,0,0,0,0,0,0,0,986,0,No
7,3,7,0,0,4,0,0,0,0,0,0,0,527,0,No
5,6,33,0,0,5,0,0,0,0,0,0,0,594,0,Yes
10,4,11,0,0,3,0,0,0,0,0,0,0,419,0,Yes
5,3,7,0,0,5,0,0,0,0,0,0,0,1007,0,No
5,4,7,0,0,5,0,0,0,0,0,0,0,1007,0,Yes
18,6,30,0,1,5,0,0,0,0,0,0,0,1077,0,No
16,8,23,0,0,5,0,0,0,0,0,0,0,902,0,Yes
5,4,5,0,0,5,0,0,0,0,0,0,0,520,0,No
15,7,24,0,2,5,0,0,0,0,0,0,0,1028,0,Yes
2,3,2,0,0,4,0,0,0,0,0,0,0,834,0,No
4,0,4,0,0,1,0,0,0,0,0,0,0,419,0,No
2,1,3,0,0,1,0,0,0,0,0,0,0,61,0,No
2,1,3,0,0,3,0,0,0,0,0,0,0,757,0,No
2,0,2,0,0,3,0,0,0,0,0,0,0,757,0,No
1,1,2,0,0,3,0,0,0,0,0,0,0,527,0,No
1,1,2,0,0,3,0,0,0,0,0,0,0,527,0,No
1,0,1,0,0,3,0,0,0,0,0,0,0,1038,0,No
14,3,33,0,0,3,0,0,0,0,0,0,0,446,0,No
3,0,3,0,0,3,0,0,0,0,0,0,0,796,0,No
1,0,1,0,0,3,0,0,0,0,0,0,0,986,0,No
2,1,2,0,1,4,0,0,0,0,0,0,0,594,0,No
2,0,3,0,0,3,0,0,0,0,0,0,0,986,0,No
1,0,1,0,0,3,0,0,0,0,0,0,0,1038,0,No
0,0,0,0,0,3,0,0,0,0,0,0,0,1038,0,No
8,0,14,0,0,4,0,0,0,0,0,0,0,594,0,No
1,0,1,0,2,1,0,0,0,0,0,0,0,68,0,No
26,0,36,0,2,1,0,0,0,0,0,0,0,407,0,No
12,0,20,0,0,1,0,0,0,0,0,0,0,399,0,No
1,4,9,0,0,4,0,0,0,0,0,0,0,440,0,Yes
1,0,1,0,1,3,0,0,0,0,0,0,0,1038,0,No
13,3,18,0,1,5,0,0,0,0,0,0,0,1031,0,No
2,0,2,0,0,3,0,0,0,0,0,0,0,1038,0,No
25,0,42,0,2,4,0,0,0,0,0,0,0,1031,0,No
6,3,12,0,0,4,0,0,0,0,0,0,0,1051,0,No
8,0,13,0,1,4,0,0,0,0,0,0,0,432,0,No
8,0,10,0,0,4,0,0,0,0,0,0,0,712,0,No
0,1,0,0,0,4,0,0,0,0,0,0,0,1031,0,No
4,1,4,0,0,3,0,0,0,0,0,0,0,1066,0,No
23,5,31,0,0,4,0,0,0,0,0,0,0,534,0,No
16,1,17,0,0,4,0,0,0,0,0,0,0,527,0,No
0,1,0,0,0,3,0,0,0,0,0,0,0,1031,0,No
6,4,6,0,0,3,0,0,0,0,0,0,0,607,0,No
14,5,14,0,0,4,0,0,0,0,0,0,0,915,0,No
6,1,8,0,0,3,0,0,0,0,0,0,0,432,0,No
5,2,7,0,0,3,0,0,0,0,0,0,0,432,0,No
4,1,4,0,0,3,0,0,0,0,0,0,0,638,0,No
15,2,15,0,0,3,0,0,0,0,0,0,0,1022,0,No
0,1,0,0,0,3,0,0,0,0,0,0,0,1031,0,No
17,4,18,0,0,4,0,0,0,0,0,0,0,638,0,No
4,0,4,0,0,3,0,0,0,0,0,0,0,1077,0,No
6,2,6,0,0,3,0,0,0,0,0,0,0,1066,0,No
5,0,10,0,0,3,0,0,0,0,0,0,0,915,0,No
4,0,4,0,0,3,0,0,0,0,0,0,0,915,0,No
8,4,11,0,0,3,0,0,0,0,0,0,0,524,0,No
11,4,19,0,0,4,0,0,0,0,0,0,0,1031,0,No
5,3,7,0,0,4,0,0,0,0,0,0,0,873,0,No
3,2,4,0,0,4,0,0,0,0,0,0,0,1077,0,No
4,3,6,0,0,4,0,0,0,0,0,0,0,1031,0,No
0,1,0,0,0,3,0,0,0,0,0,0,0,1031,0,No
0,1,0,0,0,3,0,0,0,0,0,0,0,1031,0,No
5,3,7,0,0,5,0,0,0,0,0,0,0,1031,0,No
0,1,0,0,0,3,0,0,0,0,0,0,0,1031,0,No
0,0,0,0,0,3,0,0,0,0,0,0,0,1038,0,No
11,4,19,0,0,4,0,0,0,0,0,0,0,1031,0,No
5,3,7,0,0,4,0,0,0,0,0,0,0,873,0,No
3,2,4,0,0,4,0,0,0,0,0,0,0,1077,0,No
4,3,6,0,0,4,0,0,0,0,0,0,0,1031,0,No
0,1,0,0,0,3,0,0,0,0,0,0,0,1031,0,No
0,1,0,0,0,3,0,0,0,0,0,0,0,1031,0,No
5,3,7,0,0,5,0,0,0,0,0,0,0,1031,0,No
0,1,0,0,0,3,0,0,0,0,0,0,0,1031,0,No
39,11,72,0,0,4,0,0,0,0,0,0,0,1031,0,No
11,4,19,0,1,4,0,0,0,0,0,0,0,1031,0,No
5,3,7,3,0,4,3,3,3,3,1,2,3,873,0,No
3,2,4,0,0,4,0,0,0,0,0,0,0,1077,0,No
4,3,6,0,0,4,0,0,0,0,0,0,0,1031,0,No
0,2,0,0,0,3,0,0,0,0,0,0,0,1031,0,No
0,2,0,0,0,3,0,0,0,0,0,0,0,1031,0,No
5,3,8,0,0,5,0,0,0,0,0,0,0,1031,0,No
0,2,0,0,0,3,0,0,0,0,0,0,0,1031,0,No
5,2,5,0,0,3,0,0,0,0,0,0,0,1077,0,No
5,2,5,0,0,3,0,0,0,0,0,0,0,1077,0,No
5,2,5,0,0,3,0,0,0,0,0,0,0,1077,0,No
4,2,4,0,0,3,0,0,0,0,0,0,0,1077,0,No
4,1,4,0,0,3,0,0,0,0,0,0,0,1038,0,No
5,2,5,0,0,3,0,0,0,0,0,0,0,1077,0,No
5,4,5,0,0,3,0,0,0,0,0,0,0,1077,0,No
6,3,6,0,0,3,0,0,0,0,0,0,0,1077,0,No
5,3,5,0,0,3,0,0,0,0,0,0,0,1077,0,No
5,4,5,0,0,3,0,0,0,0,0,0,0,1077,0,No
1,0,1,0,0,3,0,0,0,0,0,0,0,1038,0,No
4,2,4,0,0,3,0,0,0,0,0,0,0,638,0,No
8,5,8,0,0,3,0,0,0,0,0,0,0,1038,0,No
7,2,7,0,0,3,0,0,0,0,0,0,0,1077,0,Yes
7,3,7,0,0,3,0,0,0,0,0,0,0,1077,0,No
8,4,8,0,0,3,0,0,0,0,0,0,0,1077,0,No
5,4,5,0,0,3,0,0,0,0,0,0,0,1077,0,No
12,5,12,0,0,3,0,0,0,0,0,0,0,1077,0,Yes
8,3,8,0,0,3,0,0,0,0,0,0,0,1077,0,No
13,5,13,0,0,3,0,0,0,0,0,0,0,1077,0,Yes
4,2,4,0,0,3,0,0,0,0,0,0,0,638,0,No
4,2,4,0,0,5,0,0,0,0,0,0,0,1077,0,No
5,2,5,0,0,3,0,0,0,0,0,0,0,1077,0,No
5,4,5,0,0,3,0,0,0,0,0,0,0,1077,0,No
8,2,12,0,0,3,0,0,0,0,0,0,0,1077,0,Yes
5,2,7,0,0,3,0,0,0,0,0,0,0,1066,0,No
5,2,7,0,0,3,0,0,0,0,0,0,0,1066,0,No
4,5,9,0,0,3,0,0,0,0,0,0,0,1066,0,No
5,2,7,0,0,3,0,0,0,0,0,0,0,1066,0,No
5,6,8,0,0,3,0,0,0,0,0,0,0,1066,0,No
6,5,9,0,0,3,0,0,0,0,0,0,0,1066,0,No
5,4,8,0,0,3,0,0,0,0,0,0,0,440,0,No
5,6,8,0,0,3,0,0,0,0,0,0,0,1001,0,No
4,3,4,0,0,3,0,0,0,0,0,0,0,534,0,No
8,6,14,0,0,3,0,0,0,0,0,0,0,607,0,No
7,3,10,0,0,3,0,0,0,0,0,0,0,432,0,Yes
8,4,12,0,0,3,0,0,0,0,0,0,0,432,0,No
5,6,8,0,0,3,0,0,0,0,0,0,0,1066,0,No
13,8,23,0,0,4,0,0,0,0,0,0,0,1066,0,Yes
9,7,14,0,0,3,0,0,0,0,0,0,0,1066,0,No
4,3,4,0,0,3,0,0,0,0,0,0,0,534,0,No
5,2,7,0,0,3,0,0,0,0,0,0,0,1066,0,No
5,6,8,0,0,3,0,0,0,0,0,0,0,1066,0,No
2,2,2,0,1,3,0,0,0,0,0,0,0,1048,0,No
1,2,2,0,0,3,0,0,0,0,0,0,0,1077,0,No
1,3,6,0,0,4,0,0,0,0,0,0,0,1077,0,No
1,2,2,0,0,3,0,0,0,0,0,0,0,1048,0,No
0,1,0,0,0,3,0,0,0,0,0,0,0,1077,0,No
0,0,0,0,0,3,0,0,0,0,0,0,0,1077,0,No
1,1,1,0,0,3,0,0,0,0,0,0,0,1048,0,No
0,0,0,0,0,3,0,0,0,0,0,0,0,873,0,No
0,0,0,0,0,3,0,0,0,0,0,0,0,873,0,No
0,0,0,0,0,3,0,0,0,0,0,0,0,873,0,No
1,0,2,0,0,3,0,0,0,0,0,0,0,873,0,No
0,0,0,0,0,3,0,0,0,0,0,0,0,873,0,No
4,1,7,0,0,3,0,0,0,0,0,0,0,873,0,No
0,0,0,0,0,3,0,0,0,0,0,0,0,638,0,No
0,0,0,0,0,3,0,0,0,0,0,0,0,873,0,No
0,0,0,0,0,3,0,0,0,0,0,0,0,638,0,No
0,0,0,0,0,3,0,0,0,0,0,0,0,638,0,No
0,0,0,0,0,3,0,0,0,0,0,0,0,638,0,No
0,0,0,0,0,3,0,0,0,0,0,0,0,873,0,No
0,0,0,0,0,3,0,0,0,0,0,0,0,873,0,No
0,0,0,0,0,3,0,0,0,0,0,0,0,638,0,No
0,0,0,0,0,3,0,0,0,0,0,0,0,873,0,No
0,0,0,0,0,3,0,0,0,0,0,0,0,873,0,No
0,0,0,0,0,3,0,0,0,0,0,0,0,1038,0,No
12,2,58,0,0,3,0,0,0,0,0,0,0,594,0,No
0,0,0,0,0,3,0,0,0,0,0,0,0,1038,0,No
0,0,0,0,0,3,0,0,0,0,0,0,0,1038,0,No
12,1,32,0,1,4,0,0,0,0,0,0,0,992,0,No
1,0,1,0,0,3,0,0,0,0,0,0,0,1077,0,No
0,0,0,0,0,3,0,0,0,0,0,0,0,1038,0,No
5,3,6,0,0,3,0,0,0,0,0,0,0,638,0,No
0,0,0,0,0,3,0,0,0,0,0,0,0,638,0,No
2,1,2,0,0,4,0,0,0,0,0,0,0,432,0,No
0,1,0,0,0,3,0,0,0,0,0,0,0,638,0,No
1,1,10,0,0,1,0,0,0,0,0,0,0,407,0,No
2,7,3,0,0,3,0,0,0,0,0,0,0,856,0,No
5,9,9,0,0,4,0,0,0,0,0,0,0,1029,0,No
0,0,0,0,0,3,0,0,0,0,0,0,0,1038,0,No
8,21,20,0,0,5,0,0,0,0,0,0,0,1015,0,No
8,13,27,0,0,4,0,0,0,0,0,0,0,1006,0,Yes
5,9,9,0,0,4,0,0,0,0,0,0,0,1034,0,No
1,0,1,0,0,3,0,0,0,0,0,0,0,1077,0,No
8,12,15,0,0,5,0,0,0,0,0,0,0,524,0,No
5,9,9,0,0,5,0,0,0,0,0,0,0,712,0,No
3,7,3,0,1,3,0,0,0,0,0,0,0,527,0,No
2,2,2,0,0,3,0,0,0,0,0,0,0,1002,0,No
3,9,22,0,0,4,0,0,0,0,0,0,0,1017,0,No
4,7,7,0,0,3,0,0,0,0,0,0,0,1029,0,No
3,2,3,0,0,4,0,0,0,0,0,0,0,534,0,No
4,10,9,0,0,3,0,0,0,0,0,0,0,1029,0,No
8,0,10,0,0,3,0,0,0,0,0,0,0,1044,0,No
6,7,10,0,0,4,0,0,0,0,0,0,0,524,0,No
0,0,0,0,0,3,0,0,0,0,0,0,0,1038,0,No
3,6,9,0,0,3,0,0,0,0,0,0,0,853,0,No
2,0,2,0,0,3,0,0,0,0,0,0,0,1077,0,No
3,3,18,0,0,5,0,0,0,0,0,0,0,572,0,No
4,10,20,0,0,3,0,0,0,0,0,0,0,638,0,No
5,0,5,0,0,1,0,0,0,0,0,0,0,63,0,No
14,0,18,0,0,4,0,0,0,0,0,0,0,461,0,No
13,7,13,0,2,4,0,0,0,0,0,0,0,545,0,No
15,8,19,0,3,5,0,0,0,0,0,0,0,562,0,No
0,0,0,0,0,3,0,0,0,0,0,0,0,638,0,No
9,1,9,0,1,3,0,0,0,0,0,0,0,527,0,No
2,3,2,0,0,3,0,0,0,0,0,0,0,551,0,No
1,1,1,0,0,4,0,0,0,0,0,0,0,638,0,No
1,3,1,0,0,4,0,0,0,0,0,0,0,551,0,No
1,2,2,0,1,4,0,0,0,0,0,0,0,551,0,No
1,2,1,0,0,3,0,0,0,0,0,0,0,551,0,No
1,1,1,0,0,3,0,0,0,0,0,0,0,638,0,No
1,0,1,0,0,3,0,0,0,0,0,0,0,638,0,No
4,0,4,0,0,3,0,0,0,0,0,0,0,638,0,No
13,4,16,0,0,4,0,0,0,0,0,0,0,539,0,No
1,4,1,0,0,4,0,0,0,0,0,0,0,551,0,No
0,0,0,0,0,3,0,0,0,0,0,0,0,1038,0,No
1,0,16,0,0,3,0,0,0,0,0,0,0,456,0,No
1,0,2,0,0,4,0,0,0,0,0,0,0,1088,0,No
2,0,2,0,0,4,0,0,0,0,0,0,0,464,0,No
8,6,9,0,2,2,0,0,0,0,0,0,0,115,0,No
13,8,17,30,0,3,22,22,14,14,4,13,15,115,0,No
2,3,2,0,0,4,0,0,0,0,0,0,0,1088,0,No
4,5,14,0,0,2,0,0,0,0,0,0,0,115,0,No
5,3,5,0,0,3,0,0,0,0,0,0,0,110,0,No
9,8,24,0,1,4,0,0,0,0,0,0,0,111,0,No
12,6,13,0,2,3,0,0,0,0,0,0,0,114,0,No
10,9,12,0,1,3,0,0,0,0,0,0,0,114,0,No
13,5,13,0,0,2,0,0,0,0,0,0,0,116,0,No
6,8,13,0,1,3,0,0,0,0,0,0,0,110,0,No
1,0,1,0,0,4,0,0,0,0,0,0,0,1088,0,No
4,2,8,0,1,5,0,0,0,0,0,0,0,1088,0,No
6,3,9,0,0,3,0,0,0,0,0,0,0,109,0,No
25,8,25,0,1,4,0,0,0,0,0,0,0,116,0,No
5,3,5,0,1,1,0,0,0,0,0,0,0,72,0,No
3,3,3,0,0,5,0,0,0,0,0,0,0,1088,0,No
3,0,3,0,0,4,0,0,0,0,0,0,0,1088,0,No
0,0,0,0,0,5,0,0,0,0,0,0,0,649,0,No
0,1,0,0,0,4,0,0,0,0,0,0,0,649,0,No
0,0,0,0,0,4,0,0,0,0,0,0,0,649,0,No
35,1,42,0,0,5,0,0,0,0,0,0,0,1004,0,No
11,1,12,0,0,4,0,0,0,0,0,0,0,1004,0,No
2,1,2,0,0,4,0,0,0,0,0,0,0,1088,0,No
25,0,38,0,0,4,0,0,0,0,0,0,0,1024,0,No
2,1,2,0,0,5,0,0,0,0,0,0,0,649,0,No
1,0,1,0,0,4,0,0,0,0,0,0,0,443,0,No
12,1,14,0,0,3,0,0,0,0,0,0,0,418,0,No
10,3,10,0,0,5,0,0,0,0,0,0,0,443,0,No
7,1,11,0,0,4,0,0,0,0,0,0,0,935,0,No
3,1,3,0,0,4,0,0,0,0,0,0,0,1045,0,No
3,1,3,0,0,4,0,0,0,0,0,0,0,1088,0,No
1,0,1,0,0,4,0,0,0,0,0,0,0,1049,0,No
8,3,8,0,1,3,0,0,0,0,0,0,0,115,0,No
13,7,13,18,1,3,15,15,12,12,4,13,15,115,0,No
2,1,2,0,0,4,0,0,0,0,0,0,0,1088,0,No
0,0,0,0,0,5,0,0,0,0,0,0,0,1049,0,No
7,3,7,0,1,3,0,0,0,0,0,0,0,111,0,Yes
12,3,12,0,1,3,0,0,0,0,0,0,0,114,0,No
2,0,2,0,0,5,0,0,0,0,0,0,0,1088,0,No
10,6,10,0,0,3,0,0,0,0,0,0,0,114,0,No
13,3,13,0,0,3,0,0,0,0,0,0,0,116,0,Yes
5,3,5,0,0,3,0,0,0,0,0,0,0,110,0,No
14,8,14,0,0,4,0,0,0,0,0,0,0,111,0,Yes
25,6,25,0,1,5,0,0,0,0,0,0,0,116,0,Yes
5,2,5,0,1,5,0,0,0,0,0,0,0,1088,0,No
3,2,3,0,0,3,0,0,0,0,0,0,0,115,0,No
10,1,14,0,0,4,0,0,0,0,0,0,0,926,0,No
2,1,2,0,0,4,0,0,0,0,0,0,0,1088,0,No
2,2,2,0,0,4,0,0,0,0,0,0,0,1088,0,No
6,1,8,0,0,2,0,0,0,0,0,0,0,47,0,No
4,1,4,0,0,4,0,0,0,0,0,0,0,1088,0,No
14,2,14,0,0,4,0,0,0,0,0,0,0,1026,0,No
5,1,7,0,1,5,0,0,0,0,0,0,0,464,0,No
3,1,3,0,0,5,0,0,0,0,0,0,0,1088,0,No
2,0,2,0,0,4,0,0,0,0,0,0,0,1045,0,No
3,1,3,0,0,1,0,0,0,0,0,0,0,116,0,No
3,1,3,0,0,4,0,0,0,0,0,0,0,1088,0,No
4,2,4,0,0,4,0,0,0,0,0,0,0,1088,0,No
3,1,3,0,0,4,0,0,0,0,0,0,0,1088,0,No
16,3,16,0,0,5,0,0,0,0,0,0,0,1033,0,No
24,4,27,0,0,6,0,0,0,0,0,0,0,545,0,No
2,2,2,0,0,4,0,0,0,0,0,0,0,1088,0,No
6,2,6,0,0,4,0,0,0,0,0,0,0,1088,0,No
3,1,3,0,0,1,0,0,0,0,0,0,0,116,0,No
8,2,8,0,0,5,0,0,0,0,0,0,0,440,0,No
18,3,18,0,0,4,0,0,0,0,0,0,0,926,0,No
2,0,2,0,0,4,0,0,0,0,0,0,0,649,0,No
24,4,32,0,0,5,0,0,0,0,0,0,0,443,0,No
42,4,42,0,1,4,0,0,0,0,0,0,0,1024,0,No
12,0,16,0,0,5,0,0,0,0,0,0,0,1088,0,No
18,1,19,0,0,6,0,0,0,0,0,0,0,1088,0,No
3,1,3,0,0,1,0,0,0,0,0,0,0,116,0,No
2,2,2,0,0,4,0,0,0,0,0,0,0,1088,0,No
18,0,18,0,0,4,0,0,0,0,0,0,0,649,0,No
2,0,2,0,0,4,0,0,0,0,0,0,0,926,0,No
12,1,16,0,0,6,0,0,0,0,0,0,0,926,0,No
1,0,1,0,0,5,0,0,0,0,0,0,0,1088,0,No
3,1,3,0,0,4,0,0,0,0,0,0,0,1088,0,No
2,0,2,0,0,5,0,0,0,0,0,0,0,1088,0,No
4,1,4,0,0,4,0,0,0,0,0,0,0,649,0,No
20,2,21,0,0,4,0,0,0,0,0,0,0,551,0,No
20,1,24,0,0,4,0,0,0,0,0,0,0,1049,0,No
5,3,9,0,0,2,0,0,0,0,0,0,0,402,0,No
1,0,1,0,0,4,0,0,0,0,0,0,0,1049,0,No
0,0,0,0,1,1,0,0,0,0,0,0,0,69,0,No
48,1,52,0,0,5,0,0,0,0,0,0,0,618,0,No
0,0,0,0,0,4,0,0,0,0,0,0,0,1049,0,No
0,0,0,0,0,4,0,0,0,0,0,0,0,1049,0,No
10,2,11,0,0,7,0,0,0,0,0,0,0,1049,0,No
2,0,9,0,0,4,0,0,0,0,0,0,0,451,0,No
1,0,1,0,0,4,0,0,0,0,0,0,0,1049,0,No
0,0,0,0,0,4,0,0,0,0,0,0,0,1049,0,No
0,0,0,0,0,4,0,0,0,0,0,0,0,649,0,No
0,0,0,0,0,4,0,0,0,0,0,0,0,1049,0,No
11,11,53,0,0,6,0,0,0,0,0,0,0,531,0,No
7,1,14,0,2,5,0,0,0,0,0,0,0,1033,0,No
8,1,8,0,0,5,0,0,0,0,0,0,0,1033,0,No
8,13,18,0,0,6,0,0,0,0,0,0,0,1049,0,No
13,31,14,0,1,7,0,0,0,0,0,0,0,1049,0,Yes
3,0,3,0,0,2,0,0,0,0,0,0,0,250,0,No
0,0,0,0,0,3,0,0,0,0,0,0,0,1049,0,No
6,1,10,0,0,4,0,0,0,0,0,0,0,430,0,No
2,0,2,0,0,5,0,0,0,0,0,0,0,649,0,No
1,6,3,0,1,4,0,0,0,0,0,0,0,718,0,No
2,0,3,0,0,3,0,0,0,0,0,0,0,1088,0,No
2,0,7,0,1,5,0,0,0,0,0,0,0,768,0,No
7,0,7,0,0,3,0,0,0,0,0,0,0,1088,0,No
2,0,8,0,0,6,0,0,0,0,0,0,0,877,0,No
2,0,4,0,0,1,0,0,0,0,0,0,0,87,0,No
4,1,4,0,0,3,0,0,0,0,0,0,0,1049,0,No
2,3,2,0,0,4,0,0,0,0,0,0,0,718,0,No
1,2,1,0,1,4,0,0,0,0,0,0,0,1049,0,No
4,2,4,0,0,1,0,0,0,0,0,0,0,47,0,Yes
3,5,13,0,0,1,0,0,0,0,0,0,0,53,0,No
2,9,5,3,2,5,2,2,1,1,1,2,4,443,0,No
0,0,0,0,0,3,0,0,0,0,0,0,0,1049,0,No
0,0,0,0,0,3,0,0,0,0,0,0,0,649,0,No
0,0,0,0,0,3,0,0,0,0,0,0,0,1049,0,No
0,3,0,0,1,6,0,0,0,0,0,0,0,538,0,No
0,2,0,0,1,4,0,0,0,0,0,0,0,718,0,No
3,2,3,0,0,4,0,0,0,0,0,0,0,430,0,No
1,3,1,0,0,4,0,0,0,0,0,0,0,718,0,No
1,2,1,0,0,6,0,0,0,0,0,0,0,648,0,No
1,6,2,0,1,6,0,0,0,0,0,0,0,648,0,No
11,12,16,0,1,7,0,0,0,0,0,0,0,1049,0,Yes
2,3,2,0,0,5,0,0,0,0,0,0,0,718,0,No
2,1,2,0,0,4,0,0,0,0,0,0,0,718,0,No
12,15,51,0,1,3,0,0,0,0,0,0,0,129,0,No
0,3,0,0,0,5,0,0,0,0,0,0,0,443,0,No
8,7,12,0,2,5,0,0,0,0,0,0,0,716,0,No
2,0,2,0,0,4,0,0,0,0,0,0,0,1049,0,No
11,13,29,0,1,5,0,0,0,0,0,0,0,633,0,No
19,10,36,0,0,3,0,0,0,0,0,0,0,181,0,No
3,3,3,0,0,3,0,0,0,0,0,0,0,129,0,No
1,7,1,0,2,5,0,0,0,0,0,0,0,534,0,No
3,6,4,0,2,5,0,0,0,0,0,0,0,181,0,No
1,5,2,0,0,6,0,0,0,0,0,0,0,545,0,No
3,5,5,0,1,5,0,0,0,0,0,0,0,1049,0,No
10,10,24,0,2,5,0,0,0,0,0,0,0,716,0,No
7,6,7,0,1,6,0,0,0,0,0,0,0,1088,0,Yes
3,2,3,0,2,6,0,0,0,0,0,0,0,548,0,No
2,2,2,0,1,5,0,0,0,0,0,0,0,845,0,No
1,1,1,0,0,5,0,0,0,0,0,0,0,1088,0,No
6,2,6,0,0,6,0,0,0,0,0,0,0,997,0,No
2,0,2,0,0,4,0,0,0,0,0,0,0,1049,0,No
7,8,9,0,0,6,0,0,0,0,0,0,0,997,0,No
7,7,7,0,0,6,0,0,0,0,0,0,0,538,0,No
11,5,12,6,1,6,2,2,-2,0,1,1,1,430,0,Yes
7,7,10,0,0,6,0,0,0,0,0,0,0,1018,0,No
11,10,11,0,0,7,0,0,0,0,0,0,0,1018,0,Yes
19,11,32,0,1,7,0,0,0,0,0,0,0,1088,0,No
17,13,23,0,0,8,0,0,0,0,0,0,0,913,0,Yes
5,5,5,0,0,8,0,0,0,0,0,0,0,531,0,No
14,13,16,0,1,7,0,0,0,0,0,0,0,1039,0,Yes
2,4,2,0,0,6,0,0,0,0,0,0,0,845,0,No
4,0,4,0,0,1,0,0,0,0,0,0,0,430,0,No
2,1,3,0,1,1,0,0,0,0,0,0,0,69,0,No
2,1,3,0,1,3,0,0,0,0,0,0,0,768,0,No
2,0,2,0,1,3,0,0,0,0,0,0,0,768,0,No
3,1,4,0,0,1,0,0,0,0,0,0,0,47,0,No
1,2,10,0,1,4,0,0,0,0,0,0,0,535,0,No
0,0,0,0,0,4,0,0,0,0,0,0,0,1049,0,No
0,0,0,0,0,4,0,0,0,0,0,0,0,1049,0,No
3,0,3,0,0,5,0,0,0,0,0,0,0,538,0,No
1,1,2,0,0,4,0,0,0,0,0,0,0,538,0,No
1,2,3,0,0,4,0,0,0,0,0,0,0,538,0,No
1,0,1,0,0,4,0,0,0,0,0,0,0,1049,0,No
22,3,53,0,2,4,0,0,0,0,0,0,0,457,0,No
2,0,2,0,0,3,0,0,0,0,0,0,0,807,0,No
1,0,1,0,0,3,0,0,0,0,0,0,0,997,0,No
3,1,3,0,1,5,0,0,0,0,0,0,0,605,0,No
2,0,3,0,0,3,0,0,0,0,0,0,0,997,0,No
1,0,1,0,0,4,0,0,0,0,0,0,0,1049,0,No
0,0,0,0,0,3,0,0,0,0,0,0,0,1049,0,No
8,0,14,0,0,5,0,0,0,0,0,0,0,605,0,No
1,0,1,0,2,1,0,0,0,0,0,0,0,79,0,No
1,0,1,0,0,5,0,0,0,0,0,0,0,649,0,No
6,4,7,0,0,4,0,0,0,0,0,0,0,534,0,No
1,1,1,0,0,4,0,0,0,0,0,0,0,649,0,No
2,0,2,0,0,2,0,0,0,0,0,0,0,40,0,No
12,0,20,0,0,2,0,0,0,0,0,0,0,410,0,No
1,4,9,0,0,5,0,0,0,0,0,0,0,451,0,Yes
2,2,3,0,1,6,0,0,0,0,0,0,0,704,0,No
2,1,2,0,1,5,0,0,0,0,0,0,0,649,0,No
4,10,27,0,1,6,0,0,0,0,0,0,0,538,0,No
13,3,18,0,0,6,0,0,0,0,0,0,0,1042,0,No
2,0,2,0,0,3,0,0,0,0,0,0,0,1049,0,No
25,0,42,0,1,4,0,0,0,0,0,0,0,1042,0,No
6,2,6,0,0,6,0,0,0,0,0,0,0,1062,0,No
8,0,13,0,0,5,0,0,0,0,0,0,0,443,0,No
17,2,24,0,0,5,0,0,0,0,0,0,0,1033,0,No
8,0,10,0,0,5,0,0,0,0,0,0,0,723,0,No
0,1,0,0,0,5,0,0,0,0,0,0,0,1042,0,No
4,1,4,0,0,4,0,0,0,0,0,0,0,1077,0,No
23,5,31,0,0,5,0,0,0,0,0,0,0,545,0,No
16,1,17,0,0,5,0,0,0,0,0,0,0,538,0,No
0,1,0,0,0,4,0,0,0,0,0,0,0,1042,0,No
6,4,6,0,2,5,0,0,0,0,0,0,0,618,0,No
18,5,18,0,0,5,0,0,0,0,0,0,0,926,0,No
6,1,8,0,0,4,0,0,0,0,0,0,0,443,0,No
5,2,7,0,0,4,0,0,0,0,0,0,0,443,0,No
8,1,8,0,0,5,0,0,0,0,0,0,0,649,0,No
0,1,0,0,0,5,0,0,0,0,0,0,0,1042,0,No
19,4,21,0,0,7,0,0,0,0,0,0,0,649,0,No
4,0,4,0,0,3,0,0,0,0,0,0,0,1088,0,No
6,2,6,0,0,4,0,0,0,0,0,0,0,1077,0,No
5,0,10,0,0,4,0,0,0,0,0,0,0,926,0,No
4,0,4,0,0,3,0,0,0,0,0,0,0,926,0,No
8,4,11,0,0,4,0,0,0,0,0,0,0,535,0,No
11,4,19,0,0,5,0,0,0,0,0,0,0,1042,0,No
5,3,7,0,0,5,0,0,0,0,0,0,0,884,0,No
3,2,4,0,0,5,0,0,0,0,0,0,0,1088,0,No
4,3,6,0,0,5,0,0,0,0,0,0,0,1042,0,No
0,1,0,0,0,4,0,0,0,0,0,0,0,1042,0,No
0,1,0,0,0,4,0,0,0,0,0,0,0,1042,0,No
5,3,7,0,0,6,0,0,0,0,0,0,0,1042,0,No
0,1,0,0,0,4,0,0,0,0,0,0,0,1042,0,No
24,7,36,0,0,6,0,0,0,0,0,0,0,1012,0,No
0,0,0,0,0,3,0,0,0,0,0,0,0,1049,0,No
11,4,19,0,0,5,0,0,0,0,0,0,0,1042,0,No
5,3,7,0,0,5,0,0,0,0,0,0,0,884,0,No
3,2,4,0,0,5,0,0,0,0,0,0,0,1088,0,No
4,3,6,0,0,5,0,0,0,0,0,0,0,1042,0,No
0,1,0,0,0,4,0,0,0,0,0,0,0,1042,0,No
3,2,5,0,0,5,0,0,0,0,0,0,0,1088,0,No
0,1,0,0,0,4,0,0,0,0,0,0,0,1042,0,No
5,3,8,0,0,6,0,0,0,0,0,0,0,1042,0,No
0,1,0,0,0,4,0,0,0,0,0,0,0,1042,0,No
45,13,84,0,0,5,0,0,0,0,0,0,0,1042,0,No
11,4,19,0,0,5,0,0,0,0,0,0,0,1042,0,No
5,3,7,0,0,5,0,0,0,0,0,0,0,884,0,No
3,2,4,0,0,5,0,0,0,0,0,0,0,1088,0,No
4,3,6,0,0,5,0,0,0,0,0,0,0,1042,0,No
0,2,0,0,0,4,0,0,0,0,0,0,0,1042,0,No
3,2,5,0,0,5,0,0,0,0,0,0,0,1088,0,No
0,2,0,0,0,4,0,0,0,0,0,0,0,1042,0,No
5,3,8,0,0,6,0,0,0,0,0,0,0,1042,0,No
0,2,0,0,0,4,0,0,0,0,0,0,0,1042,0,No
5,2,5,0,0,4,0,0,0,0,0,0,0,1088,0,No
5,2,5,0,0,4,0,0,0,0,0,0,0,1088,0,No
4,5,4,0,0,6,0,0,0,0,0,0,0,1088,0,No
4,3,4,0,0,6,0,0,0,0,0,0,0,1088,0,Yes
5,2,5,0,0,4,0,0,0,0,0,0,0,1088,0,No
4,2,4,0,0,4,0,0,0,0,0,0,0,1088,0,No
2,1,2,0,0,5,0,0,0,0,0,0,0,1049,0,No
4,1,4,0,0,3,0,0,0,0,0,0,0,1049,0,No
5,2,5,0,0,4,0,0,0,0,0,0,0,1088,0,No
5,4,5,0,0,4,0,0,0,0,0,0,0,1088,0,No
6,3,6,0,0,4,0,0,0,0,0,0,0,1088,0,No
5,3,5,0,0,4,0,0,0,0,0,0,0,1088,0,No
5,4,5,0,0,4,0,0,0,0,0,0,0,1088,0,No
1,0,1,0,0,4,0,0,0,0,0,0,0,1049,0,No
0,0,0,0,0,5,0,0,0,0,0,0,0,1049,0,No
4,2,4,0,0,4,0,0,0,0,0,0,0,649,0,No
8,5,8,0,1,4,0,0,0,0,0,0,0,1049,0,No
7,2,7,0,0,4,0,0,0,0,0,0,0,1088,0,Yes
7,3,7,0,0,4,0,0,0,0,0,0,0,1088,0,No
6,4,6,0,0,4,0,0,0,0,0,0,0,1088,0,No
5,4,5,0,0,4,0,0,0,0,0,0,0,1088,0,No
10,3,10,0,0,4,0,0,0,0,0,0,0,1088,0,Yes
8,3,8,0,0,4,0,0,0,0,0,0,0,1088,0,No
13,5,13,0,0,6,0,0,0,0,0,0,0,1088,0,Yes
4,2,4,0,0,4,0,0,0,0,0,0,0,649,0,No
5,2,5,0,0,4,0,0,0,0,0,0,0,1088,0,No
5,4,5,0,0,4,0,0,0,0,0,0,0,1088,0,No
8,2,12,0,0,4,0,0,0,0,0,0,0,1088,0,Yes
5,2,7,0,0,4,0,0,0,0,0,0,0,1077,0,No
5,2,7,0,0,4,0,0,0,0,0,0,0,1077,0,No
4,6,9,0,0,5,0,0,0,0,0,0,0,1077,0,No
5,2,7,0,0,4,0,0,0,0,0,0,0,1077,0,No
5,7,8,0,0,4,0,0,0,0,0,0,0,1077,0,No
6,5,9,0,0,4,0,0,0,0,0,0,0,1077,0,No
5,4,8,0,0,4,0,0,0,0,0,0,0,451,0,No
5,6,7,0,0,5,0,0,0,0,0,0,0,1012,0,No
4,3,4,0,0,4,0,0,0,0,0,0,0,545,0,No
8,6,14,0,0,4,0,0,0,0,0,0,0,618,0,No
7,3,10,0,0,4,0,0,0,0,0,0,0,443,0,Yes
8,4,12,0,0,4,0,0,0,0,0,0,0,443,0,No
6,14,23,0,0,7,0,0,0,0,0,0,0,1033,0,No
21,15,45,6,0,7,3,3,0,0,1,2,2,1077,0,Yes
5,7,8,0,0,4,0,0,0,0,0,0,0,1077,0,No
11,6,21,0,0,5,0,0,0,0,0,0,0,1077,0,Yes
9,7,14,0,0,4,0,0,0,0,0,0,0,1077,0,No
15,11,32,0,0,9,0,0,0,0,0,0,0,832,0,Yes
4,3,4,0,0,4,0,0,0,0,0,0,0,545,0,No
5,2,7,0,0,4,0,0,0,0,0,0,0,1077,0,No
5,7,8,0,0,4,0,0,0,0,0,0,0,1077,0,No
2,2,2,0,0,4,0,0,0,0,0,0,0,1059,0,No
1,2,2,0,0,5,0,0,0,0,0,0,0,1088,0,No
1,3,6,0,0,6,0,0,0,0,0,0,0,1088,0,No
1,2,2,0,0,5,0,0,0,0,0,0,0,1059,0,No
0,1,0,0,0,5,0,0,0,0,0,0,0,1088,0,No
0,0,0,0,0,3,0,0,0,0,0,0,0,1088,0,No
1,1,1,0,0,3,0,0,0,0,0,0,0,1059,0,No
1,1,1,4,1,4,4,4,4,4,2,3,19,1088,0,No
0,0,0,0,0,4,0,0,0,0,0,0,0,884,0,No
0,0,0,0,0,4,0,0,0,0,0,0,0,884,0,No
0,0,0,0,0,4,0,0,0,0,0,0,0,884,0,No
0,0,0,0,0,4,0,0,0,0,0,0,0,884,0,No
1,0,2,0,0,4,0,0,0,0,0,0,0,884,0,No
0,0,0,0,0,4,0,0,0,0,0,0,0,884,0,No
4,1,7,17,1,5,12,12,7,7,2,3,19,884,0,No
0,0,0,0,0,4,0,0,0,0,0,0,0,649,0,No
0,0,0,0,0,4,0,0,0,0,0,0,0,884,0,No
0,0,0,0,0,4,0,0,0,0,0,0,0,649,0,No
0,0,0,0,0,4,0,0,0,0,0,0,0,649,0,No
0,0,0,0,0,4,0,0,0,0,0,0,0,649,0,No
0,0,0,0,0,4,0,0,0,0,0,0,0,884,0,No
0,0,0,0,0,4,0,0,0,0,0,0,0,649,0,No
0,0,0,0,0,4,0,0,0,0,0,0,0,884,0,No
0,0,0,0,0,5,0,0,0,0,0,0,0,884,0,No
0,0,0,0,0,4,0,0,0,0,0,0,0,884,0,No
1,3,23,0,2,7,0,0,0,0,0,0,0,548,0,No
0,0,0,0,0,4,0,0,0,0,0,0,0,1049,0,No
12,2,58,0,0,7,0,0,0,0,0,0,0,605,0,No
0,0,0,0,0,4,0,0,0,0,0,0,0,1049,0,No
0,0,0,0,0,5,0,0,0,0,0,0,0,1049,0,No
1,1,1,0,1,6,0,0,0,0,0,0,0,548,0,No
17,4,17,13,0,3,10,10,7,7,4,13,15,101,0,No
4,3,4,0,0,4,0,0,0,0,0,0,0,132,0,No
2,2,2,0,0,5,0,0,0,0,0,0,0,1049,0,No
16,1,46,0,0,5,0,0,0,0,0,0,0,1003,0,No
1,0,1,0,0,4,0,0,0,0,0,0,0,1088,0,No
1,1,1,0,0,4,0,0,0,0,0,0,0,440,0,No
4,2,4,0,0,2,0,0,0,0,0,0,0,188,0,No
0,0,0,0,0,6,0,0,0,0,0,0,0,1049,0,No
1,4,3,0,0,4,0,0,0,0,0,0,0,166,0,No
2,7,9,45,1,3,19,19,-7,0,1,3,3,144,0,No
0,0,0,0,0,3,0,0,0,0,0,0,0,1049,0,No
0,0,0,0,0,3,0,0,0,0,0,0,0,1049,0,No
4,5,5,0,1,4,0,0,0,0,0,0,0,649,0,No
0,0,0,0,0,4,0,0,0,0,0,0,0,649,0,No
2,1,2,0,0,5,0,0,0,0,0,0,0,443,0,No
0,1,0,0,0,4,0,0,0,0,0,0,0,649,0,No
1,2,10,0,1,2,0,0,0,0,0,0,0,418,0,No
2,7,3,0,0,4,0,0,0,0,0,0,0,867,0,No
5,13,11,0,1,6,0,0,0,0,0,0,0,1040,0,No
11,27,28,12,1,7,11,11,10,10,1,5,5,1017,0,Yes
5,13,11,0,1,6,0,0,0,0,0,0,0,1045,0,No
1,0,1,0,0,4,0,0,0,0,0,0,0,1088,0,No
8,13,15,0,0,7,0,0,0,0,0,0,0,535,0,No
5,13,11,0,1,7,0,0,0,0,0,0,0,723,0,No
9,9,9,0,0,5,0,0,0,0,0,0,0,538,0,No
2,2,2,0,0,4,0,0,0,0,0,0,0,1013,0,No
4,9,31,0,0,6,0,0,0,0,0,0,0,1028,0,No
4,6,7,0,0,4,0,0,0,0,0,0,0,1040,0,No
3,2,3,0,0,5,0,0,0,0,0,0,0,545,0,No
3,15,29,0,0,5,0,0,0,0,0,0,0,604,0,Yes
13,23,57,8,2,6,6,6,4,4,2,5,5,1026,0,No
4,10,9,0,0,4,0,0,0,0,0,0,0,1040,0,No
8,0,10,0,0,4,0,0,0,0,0,0,0,1055,0,No
6,8,10,0,0,6,0,0,0,0,0,0,0,535,0,No
4,2,4,0,0,5,0,0,0,0,0,0,0,723,0,No
2,2,4,0,0,4,0,0,0,0,0,0,0,237,0,No
1,1,3,0,0,1,0,0,0,0,0,0,0,26,0,No
3,7,11,0,1,4,0,0,0,0,0,0,0,864,0,Yes
10,8,10,0,1,4,0,0,0,0,0,0,0,100,0,No
14,10,16,23,0,5,18,18,13,13,4,13,15,99,0,Yes
1,0,1,0,0,6,0,0,0,0,0,0,0,1088,0,No
32,0,32,0,0,3,0,0,0,0,0,0,0,100,0,No
2,4,2,0,0,5,0,0,0,0,0,0,0,1088,0,No
6,4,6,0,0,2,0,0,0,0,0,0,0,94,0,Yes
8,10,22,0,1,4,0,0,0,0,0,0,0,95,0,Yes
14,9,15,0,0,3,0,0,0,0,0,0,0,94,0,Yes
11,10,11,0,0,5,0,0,0,0,0,0,0,99,0,No
14,7,14,0,0,2,0,0,0,0,0,0,0,93,0,Yes
6,11,21,0,0,4,0,0,0,0,0,0,0,96,0,No
16,17,24,0,0,5,0,0,0,0,0,0,0,89,0,Yes
7,5,10,0,0,2,0,0,0,0,0,0,0,94,0,Yes
26,10,26,0,1,4,0,0,0,0,0,0,0,90,0,Yes
5,4,5,0,1,6,0,0,0,0,0,0,0,1088,0,No
1,1,1,0,1,6,0,0,0,0,0,0,0,1049,0,No
15,3,20,0,0,6,0,0,0,0,0,0,0,541,0,No
7,22,27,0,1,4,0,0,0,0,0,0,0,125,0,No
3,0,3,0,0,3,0,0,0,0,0,0,0,1088,0,No
13,1,16,0,2,1,0,0,0,0,0,0,0,59,0,No
0,0,0,0,0,5,0,0,0,0,0,0,0,1049,0,No
4,1,16,0,1,4,0,0,0,0,0,0,0,237,0,No
4,10,20,0,0,4,0,0,0,0,0,0,0,649,0,No
1,0,5,6,1,1,3,3,0,0,1,3,3,32,0,No
5,1,15,0,1,2,0,0,0,0,0,0,0,74,0,No
6,1,6,0,1,2,0,0,0,0,0,0,0,74,0,No
5,0,5,0,0,4,0,0,0,0,0,0,0,1088,0,No
2,1,4,0,0,4,0,0,0,0,0,0,0,520,0,No
14,0,18,0,1,5,0,0,0,0,0,0,0,472,0,No
8,3,8,0,1,4,0,0,0,0,0,0,0,166,0,No
0,1,0,0,1,5,0,0,0,0,0,0,0,649,0,No
3,0,3,0,1,6,0,0,0,0,0,0,0,1049,0,No
9,1,9,0,1,4,0,0,0,0,0,0,0,538,0,No
0,0,0,0,0,3,0,0,0,0,0,0,0,1049,0,No
5,9,5,0,0,4,0,0,0,0,0,0,0,166,0,No
11,11,11,0,0,3,0,0,0,0,0,0,0,166,0,No
4,7,4,0,0,3,0,0,0,0,0,0,0,166,0,No
13,9,13,0,1,8,0,0,0,0,0,0,0,556,0,No
15,11,19,0,4,7,0,0,0,0,0,0,0,573,0,No
1,1,1,0,0,3,0,0,0,0,0,0,0,649,0,No
1,0,1,0,0,3,0,0,0,0,0,0,0,649,0,No
4,0,4,0,0,3,0,0,0,0,0,0,0,649,0,No
11,4,14,0,0,5,0,0,0,0,0,0,0,550,0,No
2,3,2,0,0,3,0,0,0,0,0,0,0,562,0,No
1,1,1,0,1,4,0,0,0,0,0,0,0,649,0,No
1,3,1,0,0,5,0,0,0,0,0,0,0,562,0,No
1,2,2,0,1,4,0,0,0,0,0,0,0,562,0,No
1,2,1,0,0,3,0,0,0,0,0,0,0,562,0,No
1,4,1,0,0,5,0,0,0,0,0,0,0,562,0,No
1,0,2,0,0,4,0,0,0,0,0,0,0,1131,0,No
2,0,2,0,0,4,0,0,0,0,0,0,0,507,0,No
8,6,9,0,2,2,0,0,0,0,0,0,0,158,0,No
13,8,17,0,0,3,0,0,0,0,0,0,0,158,0,No
2,3,2,0,0,4,0,0,0,0,0,0,0,1131,0,No
4,5,14,0,0,2,0,0,0,0,0,0,0,158,0,No
5,3,5,0,0,3,0,0,0,0,0,0,0,153,0,No
9,8,24,0,1,4,0,0,0,0,0,0,0,154,0,No
12,6,13,0,2,3,0,0,0,0,0,0,0,157,0,No
10,9,12,0,1,3,0,0,0,0,0,0,0,157,0,No
13,5,13,0,0,2,0,0,0,0,0,0,0,159,0,No
6,8,13,0,1,3,0,0,0,0,0,0,0,153,0,No
1,0,1,0,0,4,0,0,0,0,0,0,0,1131,0,No
4,2,8,0,1,5,0,0,0,0,0,0,0,1131,0,No
6,3,9,0,0,3,0,0,0,0,0,0,0,152,0,No
25,8,25,0,1,4,0,0,0,0,0,0,0,159,0,No
5,3,5,0,1,1,0,0,0,0,0,0,0,115,0,No
3,3,3,0,0,5,0,0,0,0,0,0,0,1131,0,No
3,0,3,0,0,4,0,0,0,0,0,0,0,1131,0,No
0,0,0,0,0,5,0,0,0,0,0,0,0,692,0,No
0,1,0,0,0,4,0,0,0,0,0,0,0,692,0,No
0,0,0,0,0,4,0,0,0,0,0,0,0,692,0,No
35,1,42,0,0,5,0,0,0,0,0,0,0,1047,0,No
11,1,12,0,0,4,0,0,0,0,0,0,0,1047,0,No
2,1,2,0,0,4,0,0,0,0,0,0,0,1131,0,No
25,0,38,0,0,4,0,0,0,0,0,0,0,1067,0,No
2,1,2,0,0,5,0,0,0,0,0,0,0,692,0,No
1,0,1,0,0,4,0,0,0,0,0,0,0,486,0,No
12,1,14,0,0,3,0,0,0,0,0,0,0,461,0,No
10,3,10,0,0,5,0,0,0,0,0,0,0,486,0,No
7,1,11,0,0,4,0,0,0,0,0,0,0,978,0,No
3,1,3,0,0,4,0,0,0,0,0,0,0,1088,0,No
3,1,3,2,0,5,2,2,2,2,1,4,18,1131,0,No
1,0,1,0,0,4,0,0,0,0,0,0,0,1092,0,No
8,3,8,0,1,3,0,0,0,0,0,0,0,158,0,No
13,7,13,0,1,3,0,0,0,0,0,0,0,158,0,No
2,1,2,0,0,4,0,0,0,0,0,0,0,1131,0,No
0,0,0,0,0,5,0,0,0,0,0,0,0,1092,0,No
5,1,5,1,0,4,0,0,-1,0,1,4,18,153,0,No
7,3,7,0,1,3,0,0,0,0,0,0,0,154,0,Yes
12,3,12,0,1,3,0,0,0,0,0,0,0,157,0,No
2,0,2,0,0,5,0,0,0,0,0,0,0,1131,0,No
10,6,10,0,0,3,0,0,0,0,0,0,0,157,0,No
13,3,13,0,0,3,0,0,0,0,0,0,0,159,0,Yes
5,3,5,0,0,3,0,0,0,0,0,0,0,153,0,No
14,8,14,0,0,4,0,0,0,0,0,0,0,154,0,Yes
25,6,25,0,1,5,0,0,0,0,0,0,0,159,0,Yes
5,2,5,0,1,5,0,0,0,0,0,0,0,1131,0,No
3,2,3,0,0,3,0,0,0,0,0,0,0,158,0,No
10,1,14,0,0,4,0,0,0,0,0,0,0,969,0,No
2,1,2,0,0,4,0,0,0,0,0,0,0,1131,0,No
2,2,2,0,0,4,0,0,0,0,0,0,0,1131,0,No
6,1,8,27,0,2,16,16,5,5,2,4,5,90,0,No
4,1,4,0,0,4,0,0,0,0,0,0,0,1131,0,No
14,2,14,0,0,4,0,0,0,0,0,0,0,1069,0,No
5,1,7,0,1,5,0,0,0,0,0,0,0,507,0,No
3,1,3,0,0,5,0,0,0,0,0,0,0,1131,0,No
2,0,2,0,0,4,0,0,0,0,0,0,0,1088,0,No
3,1,3,0,0,1,0,0,0,0,0,0,0,159,0,No
3,1,3,0,0,4,0,0,0,0,0,0,0,1131,0,No
4,2,4,0,0,4,0,0,0,0,0,0,0,1131,0,No
3,1,3,0,0,4,0,0,0,0,0,0,0,1131,0,No
16,3,16,0,0,5,0,0,0,0,0,0,0,1076,0,No
24,4,27,0,0,6,0,0,0,0,0,0,0,588,0,No
2,2,2,0,0,4,0,0,0,0,0,0,0,1131,0,No
6,2,6,0,0,4,0,0,0,0,0,0,0,1131,0,No
3,1,3,0,0,1,0,0,0,0,0,0,0,159,0,No
8,2,8,0,0,5,0,0,0,0,0,0,0,483,0,No
18,3,18,0,0,4,0,0,0,0,0,0,0,969,0,No
2,0,2,0,0,4,0,0,0,0,0,0,0,692,0,No
24,4,32,0,0,5,0,0,0,0,0,0,0,486,0,No
42,4,42,0,1,4,0,0,0,0,0,0,0,1067,0,No
12,0,16,0,0,5,0,0,0,0,0,0,0,1131,0,No
18,1,19,0,0,6,0,0,0,0,0,0,0,1131,0,No
3,1,3,0,0,1,0,0,0,0,0,0,0,159,0,No
2,2,2,0,0,4,0,0,0,0,0,0,0,1131,0,No
18,0,18,0,0,4,0,0,0,0,0,0,0,692,0,No
2,0,2,0,0,4,0,0,0,0,0,0,0,969,0,No
12,1,16,0,0,6,0,0,0,0,0,0,0,969,0,No
1,0,1,0,0,5,0,0,0,0,0,0,0,1131,0,No
3,1,3,0,0,4,0,0,0,0,0,0,0,1131,0,No
2,0,2,0,0,5,0,0,0,0,0,0,0,1131,0,No
4,1,4,0,0,4,0,0,0,0,0,0,0,692,0,No
20,2,21,0,0,4,0,0,0,0,0,0,0,594,0,No
20,1,24,20,0,5,10,10,0,0,1,4,18,1092,0,No
5,3,9,0,0,2,0,0,0,0,0,0,0,445,0,No
1,0,1,0,0,4,0,0,0,0,0,0,0,1092,0,No
0,0,0,25,1,2,14,14,3,3,2,4,5,112,0,No
48,1,52,48,0,6,24,24,0,0,1,4,18,661,0,No
0,0,0,0,0,4,0,0,0,0,0,0,0,1092,0,No
0,0,0,0,0,4,0,0,0,0,0,0,0,1092,0,No
10,2,11,8,0,8,4,4,0,0,1,4,18,1092,0,No
2,0,9,0,0,4,0,0,0,0,0,0,0,494,0,No
1,0,1,0,0,4,0,0,0,0,0,0,0,1092,0,No
0,0,0,0,0,4,0,0,0,0,0,0,0,1092,0,No
0,0,0,0,0,4,0,0,0,0,0,0,0,692,0,No
0,0,0,0,0,4,0,0,0,0,0,0,0,1092,0,No
11,11,53,0,0,6,0,0,0,0,0,0,0,574,0,No
7,1,14,8,2,6,4,4,0,0,1,4,18,1076,0,No
8,1,8,12,0,5,6,6,0,0,1,4,18,1076,0,No
8,14,18,37,0,6,18,9,-1,0,5,11,58,1092,0,No
13,31,14,2,2,7,1,1,0,0,1,2,2,1092,0,No
3,0,3,0,0,2,0,0,0,0,0,0,0,293,0,No
0,0,0,74,0,2,54,36,34,36,7,15,63,24,0,No
0,0,0,16,0,4,16,8,16,8,5,15,121,1092,0,No
6,1,10,2,0,4,1,1,0,0,2,5,40,473,0,No
2,0,2,0,0,5,0,0,0,0,0,0,0,692,0,No
1,6,3,0,1,4,0,0,0,0,0,0,0,761,0,No
2,0,3,0,0,3,0,0,0,0,0,0,0,1131,0,No
2,0,7,0,1,5,0,0,0,0,0,0,0,811,0,No
7,0,7,0,0,3,0,0,0,0,0,0,0,1131,0,No
2,0,8,0,0,6,0,0,0,0,0,0,0,920,0,No
2,0,4,0,0,1,0,0,0,0,0,0,0,130,0,No
4,8,4,39,0,4,38,32,37,32,6,15,102,1092,0,No
2,2,2,5,0,5,0,0,-5,0,1,4,44,761,0,No
1,1,1,6,1,5,1,1,-4,0,4,10,62,1092,0,No
4,2,4,6,0,3,3,2,0,1,6,10,26,90,0,No
3,5,13,2,0,2,1,1,0,0,1,4,44,96,0,No
2,8,5,9,2,5,2,1,-5,0,2,6,50,486,0,No
0,0,0,0,0,3,0,0,0,0,0,0,0,1092,0,No
0,0,0,0,0,3,0,0,0,0,0,0,0,692,0,No
0,0,0,0,0,3,0,0,0,0,0,0,0,1092,0,No
0,3,0,0,1,6,0,0,0,0,0,0,0,581,0,No
0,2,0,0,1,4,0,0,0,0,0,0,0,761,0,No
3,3,3,7,0,4,4,2,1,1,4,13,77,473,0,No
1,2,1,5,0,5,0,0,-5,0,1,4,44,761,0,No
1,2,1,0,0,6,0,0,0,0,0,0,0,691,0,No
1,5,2,5,1,6,0,0,-5,0,1,4,44,691,0,No
11,12,16,5,1,7,2,1,-1,0,2,6,50,1092,0,Yes
2,2,2,5,0,5,0,0,-5,0,1,4,44,761,0,No
2,1,2,2,0,5,1,1,0,0,1,4,44,761,0,No
12,15,51,0,1,3,0,0,0,0,0,0,0,172,0,No
0,3,0,85,0,2,68,52,51,52,7,18,106,24,0,No
0,3,0,0,0,5,0,0,0,0,0,0,0,486,0,No
9,8,13,19,2,6,13,11,7,6,4,13,77,759,0,No
2,0,2,0,0,4,0,0,0,0,0,0,0,1092,0,No
11,13,29,0,1,5,0,0,0,0,0,0,0,676,0,No
19,10,36,3,0,3,1,1,-1,0,1,1,2,224,0,No
3,2,3,13,0,3,2,2,-9,0,1,1,2,172,0,No
1,7,1,3,2,6,2,2,1,1,1,2,6,577,0,No
3,6,4,0,2,5,0,0,0,0,0,0,0,224,0,No
1,5,2,0,0,6,0,0,0,0,0,0,0,588,0,No
10,11,24,11,2,6,6,3,1,1,4,13,77,759,0,No
7,6,7,0,1,6,0,0,0,0,0,0,0,1131,0,Yes
3,2,3,0,2,6,0,0,0,0,0,0,0,591,0,No
2,2,2,0,1,5,0,0,0,0,0,0,0,888,0,No
1,1,1,0,0,5,0,0,0,0,0,0,0,1131,0,No
6,2,6,0,0,6,0,0,0,0,0,0,0,1040,0,No
2,0,2,0,0,4,0,0,0,0,0,0,0,1092,0,No
7,8,9,0,0,6,0,0,0,0,0,0,0,1040,0,No
7,7,7,0,0,6,0,0,0,0,0,0,0,581,0,No
11,5,12,0,1,6,0,0,0,0,0,0,0,473,0,Yes
7,7,10,0,0,6,0,0,0,0,0,0,0,1061,0,No
11,10,11,0,0,7,0,0,0,0,0,0,0,1061,0,Yes
19,11,32,0,1,7,0,0,0,0,0,0,0,1131,0,No
17,13,23,0,0,8,0,0,0,0,0,0,0,956,0,Yes
5,5,5,0,0,8,0,0,0,0,0,0,0,574,0,No
14,13,16,0,1,7,0,0,0,0,0,0,0,1082,0,Yes
2,4,2,0,0,6,0,0,0,0,0,0,0,888,0,No
4,0,4,0,0,1,0,0,0,0,0,0,0,473,0,No
2,1,3,0,1,1,0,0,0,0,0,0,0,112,0,No
2,1,3,0,1,3,0,0,0,0,0,0,0,811,0,No
2,0,2,0,1,3,0,0,0,0,0,0,0,811,0,No
3,1,4,0,0,1,0,0,0,0,0,0,0,90,0,No
1,2,10,0,1,4,0,0,0,0,0,0,0,578,0,No
0,0,0,0,0,4,0,0,0,0,0,0,0,1092,0,No
0,0,0,0,0,4,0,0,0,0,0,0,0,1092,0,No
3,0,3,0,0,5,0,0,0,0,0,0,0,581,0,No
1,1,2,0,0,4,0,0,0,0,0,0,0,581,0,No
1,2,3,0,0,4,0,0,0,0,0,0,0,581,0,No
1,0,1,0,0,4,0,0,0,0,0,0,0,1092,0,No
22,3,53,0,2,4,0,0,0,0,0,0,0,500,0,No
2,0,2,0,0,3,0,0,0,0,0,0,0,850,0,No
1,1,1,7,0,4,4,2,1,1,4,13,77,1040,0,No
3,1,3,0,1,5,0,0,0,0,0,0,0,648,0,No
2,1,3,7,0,4,4,2,1,1,4,13,77,1040,0,No
1,0,1,0,0,4,0,0,0,0,0,0,0,1092,0,No
0,0,0,0,0,3,0,0,0,0,0,0,0,1092,0,No
8,1,14,7,0,6,4,2,1,1,4,13,77,648,0,No
1,0,1,0,2,1,0,0,0,0,0,0,0,122,0,No
1,0,1,0,0,5,0,0,0,0,0,0,0,692,0,No
6,4,7,0,0,4,0,0,0,0,0,0,0,577,0,No
1,1,1,0,0,4,0,0,0,0,0,0,0,692,0,No
2,0,2,25,0,3,14,14,3,3,2,4,5,83,0,No
12,0,20,0,0,2,0,0,0,0,0,0,0,453,0,No
1,4,9,0,0,5,0,0,0,0,0,0,0,494,0,Yes
2,2,3,0,1,6,0,0,0,0,0,0,0,747,0,No
2,1,2,0,1,5,0,0,0,0,0,0,0,692,0,No
4,10,27,0,1,6,0,0,0,0,0,0,0,581,0,No
13,3,18,0,0,6,0,0,0,0,0,0,0,1085,0,No
2,0,2,0,0,3,0,0,0,0,0,0,0,1092,0,No
25,0,42,0,1,4,0,0,0,0,0,0,0,1085,0,No
6,2,6,0,0,6,0,0,0,0,0,0,0,1105,0,No
8,0,13,0,0,5,0,0,0,0,0,0,0,486,0,No
17,2,24,0,0,5,0,0,0,0,0,0,0,1076,0,No
8,0,10,0,0,5,0,0,0,0,0,0,0,766,0,No
0,1,0,0,0,5,0,0,0,0,0,0,0,1085,0,No
4,1,4,0,0,4,0,0,0,0,0,0,0,1120,0,No
23,5,31,0,0,5,0,0,0,0,0,0,0,588,0,No
16,1,17,0,0,5,0,0,0,0,0,0,0,581,0,No
0,1,0,0,0,4,0,0,0,0,0,0,0,1085,0,No
6,4,6,0,2,5,0,0,0,0,0,0,0,661,0,No
18,5,18,0,0,5,0,0,0,0,0,0,0,969,0,No
6,1,8,0,0,4,0,0,0,0,0,0,0,486,0,No
5,2,7,0,0,4,0,0,0,0,0,0,0,486,0,No
8,1,8,0,0,5,0,0,0,0,0,0,0,692,0,No
0,1,0,0,0,5,0,0,0,0,0,0,0,1085,0,No
19,4,21,0,0,7,0,0,0,0,0,0,0,692,0,No
4,0,4,0,0,3,0,0,0,0,0,0,0,1131,0,No
6,2,6,0,0,4,0,0,0,0,0,0,0,1120,0,No
5,0,10,0,0,4,0,0,0,0,0,0,0,969,0,No
4,0,4,0,0,3,0,0,0,0,0,0,0,969,0,No
8,4,11,0,0,4,0,0,0,0,0,0,0,578,0,No
11,4,19,0,0,5,0,0,0,0,0,0,0,1085,0,No
5,3,7,0,0,5,0,0,0,0,0,0,0,927,0,No
3,2,4,0,0,5,0,0,0,0,0,0,0,1131,0,No
4,3,6,0,0,5,0,0,0,0,0,0,0,1085,0,No
0,1,0,0,0,4,0,0,0,0,0,0,0,1085,0,No
0,1,0,0,0,4,0,0,0,0,0,0,0,1085,0,No
5,3,7,0,0,6,0,0,0,0,0,0,0,1085,0,No
0,1,0,0,0,4,0,0,0,0,0,0,0,1085,0,No
24,7,36,0,0,6,0,0,0,0,0,0,0,1055,0,No
0,0,0,0,0,3,0,0,0,0,0,0,0,1092,0,No
11,4,19,0,0,5,0,0,0,0,0,0,0,1085,0,No
5,3,7,0,0,5,0,0,0,0,0,0,0,927,0,No
3,2,4,0,0,5,0,0,0,0,0,0,0,1131,0,No
4,3,6,0,0,5,0,0,0,0,0,0,0,1085,0,No
0,1,0,0,0,4,0,0,0,0,0,0,0,1085,0,No
3,2,5,0,0,5,0,0,0,0,0,0,0,1131,0,No
0,1,0,0,0,4,0,0,0,0,0,0,0,1085,0,No
5,3,8,0,0,6,0,0,0,0,0,0,0,1085,0,No
0,1,0,0,0,4,0,0,0,0,0,0,0,1085,0,No
45,13,84,0,0,5,0,0,0,0,0,0,0,1085,0,No
11,4,19,0,0,5,0,0,0,0,0,0,0,1085,0,No
5,3,7,0,0,5,0,0,0,0,0,0,0,927,0,No
3,2,4,0,0,5,0,0,0,0,0,0,0,1131,0,No
4,3,6,0,0,5,0,0,0,0,0,0,0,1085,0,No
0,2,0,0,0,4,0,0,0,0,0,0,0,1085,0,No
3,2,5,0,0,5,0,0,0,0,0,0,0,1131,0,No
0,2,0,0,0,4,0,0,0,0,0,0,0,1085,0,No
5,3,8,0,0,6,0,0,0,0,0,0,0,1085,0,No
0,2,0,0,0,4,0,0,0,0,0,0,0,1085,0,No
5,2,5,0,0,4,0,0,0,0,0,0,0,1131,0,No
5,2,5,0,0,4,0,0,0,0,0,0,0,1131,0,No
4,5,4,0,0,6,0,0,0,0,0,0,0,1131,0,No
4,3,4,0,0,6,0,0,0,0,0,0,0,1131,0,Yes
5,2,5,0,0,4,0,0,0,0,0,0,0,1131,0,No
4,2,4,0,0,4,0,0,0,0,0,0,0,1131,0,No
2,1,2,0,0,5,0,0,0,0,0,0,0,1092,0,No
4,1,4,0,0,3,0,0,0,0,0,0,0,1092,0,No
5,2,5,0,0,4,0,0,0,0,0,0,0,1131,0,No
5,4,5,0,0,4,0,0,0,0,0,0,0,1131,0,No
6,3,6,0,0,4,0,0,0,0,0,0,0,1131,0,No
5,3,5,0,0,4,0,0,0,0,0,0,0,1131,0,No
5,4,5,0,0,4,0,0,0,0,0,0,0,1131,0,No
1,0,1,0,0,4,0,0,0,0,0,0,0,1092,0,No
0,0,0,0,0,5,0,0,0,0,0,0,0,1092,0,No
4,2,4,0,0,4,0,0,0,0,0,0,0,692,0,No
8,5,8,0,1,4,0,0,0,0,0,0,0,1092,0,No
7,2,7,0,0,4,0,0,0,0,0,0,0,1131,0,Yes
7,3,7,0,0,4,0,0,0,0,0,0,0,1131,0,No
6,4,6,0,0,4,0,0,0,0,0,0,0,1131,0,No
5,4,5,0,0,4,0,0,0,0,0,0,0,1131,0,No
10,3,10,0,0,4,0,0,0,0,0,0,0,1131,0,Yes
8,3,8,0,0,4,0,0,0,0,0,0,0,1131,0,No
13,5,13,0,0,6,0,0,0,0,0,0,0,1131,0,Yes
4,2,4,0,0,4,0,0,0,0,0,0,0,692,0,No
5,2,5,0,0,4,0,0,0,0,0,0,0,1131,0,No
5,4,5,0,0,4,0,0,0,0,0,0,0,1131,0,No
8,2,12,0,0,4,0,0,0,0,0,0,0,1131,0,Yes
5,2,7,0,0,4,0,0,0,0,0,0,0,1120,0,No
5,2,7,0,0,4,0,0,0,0,0,0,0,1120,0,No
4,6,9,0,0,5,0,0,0,0,0,0,0,1120,0,No
5,2,7,0,0,4,0,0,0,0,0,0,0,1120,0,No
5,7,8,0,0,4,0,0,0,0,0,0,0,1120,0,No
6,5,9,0,0,4,0,0,0,0,0,0,0,1120,0,No
5,4,8,0,0,4,0,0,0,0,0,0,0,494,0,No
5,6,7,0,0,5,0,0,0,0,0,0,0,1055,0,No
4,3,4,0,0,4,0,0,0,0,0,0,0,588,0,No
8,6,14,0,0,4,0,0,0,0,0,0,0,661,0,No
7,3,10,0,0,4,0,0,0,0,0,0,0,486,0,Yes
8,4,12,0,0,4,0,0,0,0,0,0,0,486,0,No
6,14,23,0,0,7,0,0,0,0,0,0,0,1076,0,No
21,15,45,0,0,7,0,0,0,0,0,0,0,1120,0,Yes
5,7,8,0,0,4,0,0,0,0,0,0,0,1120,0,No
11,6,21,0,0,5,0,0,0,0,0,0,0,1120,0,Yes
9,7,14,0,0,4,0,0,0,0,0,0,0,1120,0,No
15,11,32,0,0,9,0,0,0,0,0,0,0,875,0,Yes
4,3,4,0,0,4,0,0,0,0,0,0,0,588,0,No
5,2,7,0,0,4,0,0,0,0,0,0,0,1120,0,No
5,7,8,0,0,4,0,0,0,0,0,0,0,1120,0,No
2,2,2,0,0,4,0,0,0,0,0,0,0,1102,0,No
1,2,2,0,0,5,0,0,0,0,0,0,0,1131,0,No
1,3,6,0,0,6,0,0,0,0,0,0,0,1131,0,No
1,2,2,0,0,5,0,0,0,0,0,0,0,1102,0,No
0,1,0,0,0,5,0,0,0,0,0,0,0,1131,0,No
0,0,0,0,0,3,0,0,0,0,0,0,0,1131,0,No
1,1,1,0,0,3,0,0,0,0,0,0,0,1102,0,No
1,1,1,0,1,4,0,0,0,0,0,0,0,1131,0,No
0,0,0,0,0,4,0,0,0,0,0,0,0,927,0,No
0,0,0,0,0,4,0,0,0,0,0,0,0,927,0,No
0,0,0,0,0,4,0,0,0,0,0,0,0,927,0,No
0,0,0,0,0,4,0,0,0,0,0,0,0,927,0,No
1,0,2,0,0,4,0,0,0,0,0,0,0,927,0,No
0,0,0,0,0,4,0,0,0,0,0,0,0,927,0,No
4,1,7,0,1,5,0,0,0,0,0,0,0,927,0,No
0,0,0,0,0,4,0,0,0,0,0,0,0,692,0,No
0,0,0,0,0,4,0,0,0,0,0,0,0,927,0,No
0,0,0,0,0,4,0,0,0,0,0,0,0,692,0,No
0,0,0,0,0,4,0,0,0,0,0,0,0,692,0,No
0,0,0,0,0,4,0,0,0,0,0,0,0,692,0,No
0,0,0,0,0,4,0,0,0,0,0,0,0,927,0,No
0,0,0,0,0,4,0,0,0,0,0,0,0,692,0,No
0,0,0,0,0,4,0,0,0,0,0,0,0,927,0,No
0,0,0,0,0,5,0,0,0,0,0,0,0,927,0,No
0,0,0,0,0,4,0,0,0,0,0,0,0,927,0,No
1,3,23,0,2,7,0,0,0,0,0,0,0,591,0,No
0,0,0,0,0,4,0,0,0,0,0,0,0,1092,0,No
12,2,58,0,0,7,0,0,0,0,0,0,0,648,0,No
0,0,0,0,0,4,0,0,0,0,0,0,0,1092,0,No
0,0,0,0,0,5,0,0,0,0,0,0,0,1092,0,No
1,1,1,0,1,6,0,0,0,0,0,0,0,591,0,No
17,4,17,0,0,3,0,0,0,0,0,0,0,144,0,No
4,3,4,0,0,4,0,0,0,0,0,0,0,175,0,No
2,2,2,0,0,5,0,0,0,0,0,0,0,1092,0,No
16,1,46,0,0,5,0,0,0,0,0,0,0,1046,0,Yes
1,0,1,0,0,4,0,0,0,0,0,0,0,1131,0,No
1,1,1,0,0,4,0,0,0,0,0,0,0,483,0,No
4,2,4,0,0,2,0,0,0,0,0,0,0,231,0,No
0,0,0,0,0,6,0,0,0,0,0,0,0,1092,0,No
1,4,3,0,0,4,0,0,0,0,0,0,0,209,0,No
2,7,9,0,1,3,0,0,0,0,0,0,0,187,0,Yes
0,0,0,0,0,3,0,0,0,0,0,0,0,1092,0,No
0,0,0,0,0,3,0,0,0,0,0,0,0,1092,0,No
4,5,5,0,1,4,0,0,0,0,0,0,0,692,0,No
0,0,0,0,0,4,0,0,0,0,0,0,0,692,0,No
2,1,2,0,0,5,0,0,0,0,0,0,0,486,0,No
0,1,0,0,0,4,0,0,0,0,0,0,0,692,0,No
1,2,10,2,1,2,1,1,0,0,1,2,3,461,0,No
2,7,3,0,0,4,0,0,0,0,0,0,0,910,0,No
5,13,11,0,1,6,0,0,0,0,0,0,0,1083,0,No
11,27,28,0,1,7,0,0,0,0,0,0,0,1060,0,Yes
5,13,11,0,1,6,0,0,0,0,0,0,0,1088,0,No
1,0,1,0,0,4,0,0,0,0,0,0,0,1131,0,No
8,13,15,0,0,7,0,0,0,0,0,0,0,578,0,No
5,13,11,0,1,7,0,0,0,0,0,0,0,766,0,No
9,9,9,0,0,5,0,0,0,0,0,0,0,581,0,No
2,2,2,0,0,4,0,0,0,0,0,0,0,1056,0,No
4,9,31,0,0,6,0,0,0,0,0,0,0,1071,0,No
4,6,7,0,0,4,0,0,0,0,0,0,0,1083,0,No
3,2,3,0,0,5,0,0,0,0,0,0,0,588,0,No
3,15,29,0,0,5,0,0,0,0,0,0,0,647,0,Yes
13,23,57,0,2,6,0,0,0,0,0,0,0,1069,0,No
4,10,9,0,0,4,0,0,0,0,0,0,0,1083,0,No
8,0,10,0,0,4,0,0,0,0,0,0,0,1098,0,No
6,8,10,0,0,6,0,0,0,0,0,0,0,578,0,No
4,2,4,0,0,5,0,0,0,0,0,0,0,766,0,No
2,2,4,0,0,4,0,0,0,0,0,0,0,280,0,No
1,1,3,0,0,1,0,0,0,0,0,0,0,69,0,No
1,7,9,10,2,4,2,2,-6,0,1,4,9,907,0,No
10,8,10,0,1,4,0,0,0,0,0,0,0,143,0,No
14,10,16,0,0,5,0,0,0,0,0,0,0,142,0,Yes
1,0,1,0,0,6,0,0,0,0,0,0,0,1131,0,No
32,0,32,0,0,3,0,0,0,0,0,0,0,143,0,No
2,4,2,0,0,5,0,0,0,0,0,0,0,1131,0,No
6,4,6,0,0,2,0,0,0,0,0,0,0,137,0,Yes
8,10,22,0,1,4,0,0,0,0,0,0,0,138,0,Yes
14,9,15,0,0,3,0,0,0,0,0,0,0,137,0,Yes
11,10,11,0,0,5,0,0,0,0,0,0,0,142,0,No
14,7,14,0,0,2,0,0,0,0,0,0,0,136,0,Yes
6,11,21,0,0,4,0,0,0,0,0,0,0,139,0,No
16,17,24,0,0,5,0,0,0,0,0,0,0,132,0,Yes
7,5,10,0,0,2,0,0,0,0,0,0,0,137,0,Yes
26,10,26,0,1,4,0,0,0,0,0,0,0,133,0,Yes
5,4,5,0,1,6,0,0,0,0,0,0,0,1131,0,No
1,1,1,0,1,6,0,0,0,0,0,0,0,1092,0,No
15,3,20,0,0,6,0,0,0,0,0,0,0,584,0,No
7,22,27,0,1,4,0,0,0,0,0,0,0,168,0,No
3,0,3,0,0,3,0,0,0,0,0,0,0,1131,0,No
13,1,16,0,2,1,0,0,0,0,0,0,0,102,0,No
0,0,0,0,0,5,0,0,0,0,0,0,0,1092,0,No
4,1,16,0,1,4,0,0,0,0,0,0,0,280,0,No
4,10,20,0,0,4,0,0,0,0,0,0,0,692,0,No
1,0,5,0,1,1,0,0,0,0,0,0,0,75,0,No
5,1,15,0,1,2,0,0,0,0,0,0,0,117,0,No
6,1,6,0,1,2,0,0,0,0,0,0,0,117,0,No
5,0,5,0,0,4,0,0,0,0,0,0,0,1131,0,No
2,1,4,0,0,4,0,0,0,0,0,0,0,563,0,No
14,0,18,0,1,5,0,0,0,0,0,0,0,515,0,No
8,3,8,0,1,4,0,0,0,0,0,0,0,209,0,No
0,1,0,0,1,5,0,0,0,0,0,0,0,692,0,No
3,0,3,0,1,6,0,0,0,0,0,0,0,1092,0,No
9,1,9,0,1,4,0,0,0,0,0,0,0,581,0,No
0,0,0,0,0,3,0,0,0,0,0,0,0,1092,0,No
5,9,5,0,0,4,0,0,0,0,0,0,0,209,0,No
11,11,11,0,0,3,0,0,0,0,0,0,0,209,0,No
4,7,4,0,0,3,0,0,0,0,0,0,0,209,0,No
13,9,13,0,1,8,0,0,0,0,0,0,0,599,0,No
15,11,19,0,4,7,0,0,0,0,0,0,0,616,0,No
1,1,1,0,0,3,0,0,0,0,0,0,0,692,0,No
1,0,1,0,0,3,0,0,0,0,0,0,0,692,0,No
4,0,4,0,0,3,0,0,0,0,0,0,0,692,0,No
11,4,14,0,0,5,0,0,0,0,0,0,0,593,0,No
2,3,2,0,0,3,0,0,0,0,0,0,0,605,0,No
1,1,1,0,1,4,0,0,0,0,0,0,0,692,0,No
1,3,1,0,0,5,0,0,0,0,0,0,0,605,0,No
1,2,2,0,1,4,0,0,0,0,0,0,0,605,0,No
1,2,1,0,0,3,0,0,0,0,0,0,0,605,0,No
1,4,1,0,0,5,0,0,0,0,0,0,0,605,0,No
1,0,2,0,0,4,0,0,0,0,0,0,0,1162,0,No
2,0,2,0,0,4,0,0,0,0,0,0,0,538,0,No
8,6,9,0,2,2,0,0,0,0,0,0,0,189,0,No
13,8,17,0,0,3,0,0,0,0,0,0,0,189,0,No
2,3,2,0,0,4,0,0,0,0,0,0,0,1162,0,No
4,5,14,0,0,2,0,0,0,0,0,0,0,189,0,No
5,3,5,0,0,3,0,0,0,0,0,0,0,184,0,No
9,8,24,0,1,4,0,0,0,0,0,0,0,185,0,No
12,6,13,0,2,3,0,0,0,0,0,0,0,188,0,No
10,9,12,0,1,3,0,0,0,0,0,0,0,188,0,No
13,5,13,0,0,2,0,0,0,0,0,0,0,190,0,No
6,8,13,0,1,3,0,0,0,0,0,0,0,184,0,No
1,0,1,0,0,4,0,0,0,0,0,0,0,1162,0,No
4,2,8,0,1,5,0,0,0,0,0,0,0,1162,0,No
6,3,9,0,0,3,0,0,0,0,0,0,0,183,0,No
25,8,25,0,1,4,0,0,0,0,0,0,0,190,0,No
5,3,5,0,1,1,0,0,0,0,0,0,0,146,0,No
3,3,3,0,0,5,0,0,0,0,0,0,0,1162,0,No
3,0,3,0,0,4,0,0,0,0,0,0,0,1162,0,No
0,0,0,0,0,5,0,0,0,0,0,0,0,723,0,No
0,1,0,0,0,4,0,0,0,0,0,0,0,723,0,No
0,0,0,0,0,4,0,0,0,0,0,0,0,723,0,No
35,1,42,0,0,5,0,0,0,0,0,0,0,1078,0,No
11,1,12,0,0,4,0,0,0,0,0,0,0,1078,0,No
2,1,2,5,0,4,5,5,5,5,1,1,2,1162,0,No
25,0,38,10,0,4,10,10,10,10,1,1,2,1098,0,No
2,1,2,0,0,5,0,0,0,0,0,0,0,723,0,No
1,0,1,0,0,4,0,0,0,0,0,0,0,517,0,No
10,3,10,257,0,5,126,126,-5,0,2,3,9,517,0,No
12,1,14,0,0,3,0,0,0,0,0,0,0,492,0,No
10,3,10,10,0,5,5,5,0,0,2,3,9,517,0,No
7,1,11,0,0,4,0,0,0,0,0,0,0,1009,0,No
3,1,3,0,0,4,0,0,0,0,0,0,0,1119,0,No
3,1,3,0,0,5,0,0,0,0,0,0,0,1162,0,No
1,0,1,0,0,4,0,0,0,0,0,0,0,1123,0,No
8,3,8,0,1,3,0,0,0,0,0,0,0,189,0,No
13,7,13,0,1,3,0,0,0,0,0,0,0,189,0,No
2,1,2,0,0,4,0,0,0,0,0,0,0,1162,0,No
0,0,0,0,0,5,0,0,0,0,0,0,0,1123,0,No
5,1,5,0,0,4,0,0,0,0,0,0,0,184,0,No
7,3,7,0,1,3,0,0,0,0,0,0,0,185,0,Yes
12,3,12,0,1,3,0,0,0,0,0,0,0,188,0,No
2,0,2,0,0,5,0,0,0,0,0,0,0,1162,0,No
10,6,10,0,0,3,0,0,0,0,0,0,0,188,0,No
13,3,13,0,0,3,0,0,0,0,0,0,0,190,0,Yes
5,3,5,0,0,3,0,0,0,0,0,0,0,184,0,No
14,8,14,0,0,4,0,0,0,0,0,0,0,185,0,Yes
25,6,25,0,1,5,0,0,0,0,0,0,0,190,0,Yes
5,2,5,0,1,5,0,0,0,0,0,0,0,1162,0,No
3,2,3,0,0,3,0,0,0,0,0,0,0,189,0,No
10,1,14,0,0,4,0,0,0,0,0,0,0,1000,0,No
2,1,2,0,0,4,0,0,0,0,0,0,0,1162,0,No
2,2,2,0,0,4,0,0,0,0,0,0,0,1162,0,No
6,1,8,0,0,2,0,0,0,0,0,0,0,121,0,No
4,1,4,0,0,4,0,0,0,0,0,0,0,1162,0,No
14,2,14,0,0,4,0,0,0,0,0,0,0,1100,0,No
5,1,7,0,1,5,0,0,0,0,0,0,0,538,0,No
3,1,3,0,0,5,0,0,0,0,0,0,0,1162,0,No
2,0,2,0,0,4,0,0,0,0,0,0,0,1119,0,No
3,1,3,0,0,1,0,0,0,0,0,0,0,190,0,No
3,1,3,0,0,4,0,0,0,0,0,0,0,1162,0,No
4,2,4,0,0,4,0,0,0,0,0,0,0,1162,0,No
3,1,3,0,0,4,0,0,0,0,0,0,0,1162,0,No
16,3,16,0,0,5,0,0,0,0,0,0,0,1107,0,No
24,4,27,0,0,6,0,0,0,0,0,0,0,619,0,No
2,2,2,0,0,4,0,0,0,0,0,0,0,1162,0,No
6,2,6,0,0,4,0,0,0,0,0,0,0,1162,0,No
3,1,3,0,0,1,0,0,0,0,0,0,0,190,0,No
8,2,8,0,0,5,0,0,0,0,0,0,0,514,0,No
18,3,18,0,0,4,0,0,0,0,0,0,0,1000,0,No
2,0,2,0,0,4,0,0,0,0,0,0,0,723,0,No
24,4,32,0,0,5,0,0,0,0,0,0,0,517,0,No
42,4,42,0,1,4,0,0,0,0,0,0,0,1098,0,No
12,0,16,0,0,5,0,0,0,0,0,0,0,1162,0,No
18,1,19,0,0,6,0,0,0,0,0,0,0,1162,0,No
3,1,3,0,0,1,0,0,0,0,0,0,0,190,0,No
2,2,2,0,0,4,0,0,0,0,0,0,0,1162,0,No
18,0,18,0,0,4,0,0,0,0,0,0,0,723,0,No
2,0,2,0,0,4,0,0,0,0,0,0,0,1000,0,No
12,1,16,0,0,6,0,0,0,0,0,0,0,1000,0,No
1,0,1,0,0,5,0,0,0,0,0,0,0,1162,0,No
3,1,3,0,0,4,0,0,0,0,0,0,0,1162,0,No
2,0,2,0,0,5,0,0,0,0,0,0,0,1162,0,No
4,1,4,0,0,4,0,0,0,0,0,0,0,723,0,No
20,2,21,0,0,4,0,0,0,0,0,0,0,625,0,No
20,1,24,0,0,5,0,0,0,0,0,0,0,1123,0,No
5,3,9,0,0,2,0,0,0,0,0,0,0,476,0,No
1,0,1,0,0,4,0,0,0,0,0,0,0,1123,0,No
0,0,0,0,1,2,0,0,0,0,0,0,0,143,0,No
48,1,52,0,0,6,0,0,0,0,0,0,0,692,0,No
0,0,0,0,0,4,0,0,0,0,0,0,0,1123,0,No
0,0,0,0,0,4,0,0,0,0,0,0,0,1123,0,No
10,2,11,0,0,8,0,0,0,0,0,0,0,1123,0,No
2,0,9,0,0,4,0,0,0,0,0,0,0,525,0,No
1,0,1,0,0,4,0,0,0,0,0,0,0,1123,0,No
0,0,0,0,0,4,0,0,0,0,0,0,0,1123,0,No
0,0,0,0,0,4,0,0,0,0,0,0,0,723,0,No
0,0,0,0,0,4,0,0,0,0,0,0,0,1123,0,No
11,11,53,0,0,6,0,0,0,0,0,0,0,605,0,No
7,1,14,0,2,6,0,0,0,0,0,0,0,1107,0,No
8,1,8,0,0,5,0,0,0,0,0,0,0,1107,0,No
8,14,18,0,0,6,0,0,0,0,0,0,0,1123,0,No
13,31,14,0,2,7,0,0,0,0,0,0,0,1123,0,No
3,0,3,0,0,2,0,0,0,0,0,0,0,324,0,No
0,0,0,0,0,2,0,0,0,0,0,0,0,55,0,No
0,0,0,0,0,4,0,0,0,0,0,0,0,1123,0,No
6,1,10,0,0,4,0,0,0,0,0,0,0,504,0,No
2,0,2,0,0,5,0,0,0,0,0,0,0,723,0,No
1,6,3,0,1,4,0,0,0,0,0,0,0,792,0,No
2,0,3,0,0,3,0,0,0,0,0,0,0,1162,0,No
2,0,7,0,1,5,0,0,0,0,0,0,0,842,0,No
7,0,7,0,0,3,0,0,0,0,0,0,0,1162,0,No
2,0,8,0,0,6,0,0,0,0,0,0,0,951,0,No
2,0,4,0,0,1,0,0,0,0,0,0,0,161,0,No
4,8,4,0,0,4,0,0,0,0,0,0,0,1123,0,No
2,2,2,0,0,5,0,0,0,0,0,0,0,792,0,No
1,1,1,0,1,5,0,0,0,0,0,0,0,1123,0,No
4,2,4,0,0,3,0,0,0,0,0,0,0,121,0,No
3,5,13,0,0,2,0,0,0,0,0,0,0,127,0,No
2,8,5,0,2,5,0,0,0,0,0,0,0,517,0,No
0,0,0,0,0,3,0,0,0,0,0,0,0,1123,0,No
0,0,0,0,0,3,0,0,0,0,0,0,0,723,0,No
0,0,0,0,0,3,0,0,0,0,0,0,0,1123,0,No
0,3,0,0,1,6,0,0,0,0,0,0,0,612,0,No
0,2,0,0,1,4,0,0,0,0,0,0,0,792,0,No
3,3,3,0,0,4,0,0,0,0,0,0,0,504,0,No
1,2,1,0,0,5,0,0,0,0,0,0,0,792,0,No
1,2,1,0,0,6,0,0,0,0,0,0,0,722,0,No
1,5,2,0,1,6,0,0,0,0,0,0,0,722,0,No
11,12,16,0,1,7,0,0,0,0,0,0,0,1123,0,Yes
2,2,2,0,0,5,0,0,0,0,0,0,0,792,0,No
2,1,2,0,0,5,0,0,0,0,0,0,0,792,0,No
1,2,1,6,0,6,6,6,6,6,1,6,10,1123,0,No
12,15,51,0,1,3,0,0,0,0,0,0,0,203,0,No
0,3,0,0,0,2,0,0,0,0,0,0,0,55,0,No
0,3,0,0,0,5,0,0,0,0,0,0,0,517,0,No
9,8,13,0,2,6,0,0,0,0,0,0,0,790,0,No
2,0,2,0,0,4,0,0,0,0,0,0,0,1123,0,No
11,13,29,0,1,5,0,0,0,0,0,0,0,707,0,No
19,10,36,0,0,3,0,0,0,0,0,0,0,255,0,No
3,2,3,0,0,3,0,0,0,0,0,0,0,203,0,No
1,7,1,3,2,6,1,1,-1,0,1,6,10,608,0,No
3,6,4,0,2,5,0,0,0,0,0,0,0,255,0,No
1,5,2,4,0,6,2,2,0,0,1,2,2,619,0,No
10,11,24,0,2,6,0,0,0,0,0,0,0,790,0,No
7,6,7,0,1,6,0,0,0,0,0,0,0,1162,0,Yes
3,2,3,0,2,6,0,0,0,0,0,0,0,622,0,No
2,2,2,0,1,5,0,0,0,0,0,0,0,919,0,No
1,1,1,0,0,5,0,0,0,0,0,0,0,1162,0,No
6,2,6,0,0,6,0,0,0,0,0,0,0,1071,0,No
2,0,2,0,0,4,0,0,0,0,0,0,0,1123,0,No
7,8,9,0,0,6,0,0,0,0,0,0,0,1071,0,No
7,7,7,0,0,6,0,0,0,0,0,0,0,612,0,No
11,5,12,0,1,6,0,0,0,0,0,0,0,504,0,Yes
7,7,10,0,0,6,0,0,0,0,0,0,0,1092,0,No
11,10,11,0,0,7,0,0,0,0,0,0,0,1092,0,Yes
19,11,32,0,1,7,0,0,0,0,0,0,0,1162,0,No
17,13,23,0,0,8,0,0,0,0,0,0,0,987,0,Yes
5,5,5,0,0,8,0,0,0,0,0,0,0,605,0,No
14,13,16,0,1,7,0,0,0,0,0,0,0,1113,0,Yes
2,4,2,0,0,6,0,0,0,0,0,0,0,919,0,No
4,0,4,0,0,1,0,0,0,0,0,0,0,504,0,No
2,1,3,0,1,1,0,0,0,0,0,0,0,143,0,No
2,1,3,0,1,3,0,0,0,0,0,0,0,842,0,No
2,0,2,0,1,3,0,0,0,0,0,0,0,842,0,No
3,1,4,0,0,1,0,0,0,0,0,0,0,121,0,No
1,2,10,0,1,4,0,0,0,0,0,0,0,609,0,No
0,0,0,0,0,4,0,0,0,0,0,0,0,1123,0,No
0,0,0,0,0,4,0,0,0,0,0,0,0,1123,0,No
3,0,3,0,0,5,0,0,0,0,0,0,0,612,0,No
1,1,2,0,0,4,0,0,0,0,0,0,0,612,0,No
1,2,3,0,0,4,0,0,0,0,0,0,0,612,0,No
1,0,1,0,0,4,0,0,0,0,0,0,0,1123,0,No
22,3,53,0,2,4,0,0,0,0,0,0,0,531,0,No
2,0,2,0,0,3,0,0,0,0,0,0,0,881,0,No
1,1,1,0,0,4,0,0,0,0,0,0,0,1071,0,No
3,1,3,0,1,5,0,0,0,0,0,0,0,679,0,No
2,1,3,0,0,4,0,0,0,0,0,0,0,1071,0,No
1,0,1,0,0,4,0,0,0,0,0,0,0,1123,0,No
0,0,0,0,0,3,0,0,0,0,0,0,0,1123,0,No
8,1,14,0,0,6,0,0,0,0,0,0,0,679,0,No
1,0,1,0,2,1,0,0,0,0,0,0,0,153,0,No
1,0,1,0,0,5,0,0,0,0,0,0,0,723,0,No
6,4,7,0,0,4,0,0,0,0,0,0,0,608,0,No
1,1,1,0,0,4,0,0,0,0,0,0,0,723,0,No
2,0,2,2,0,3,1,1,0,0,1,6,10,114,0,No
12,0,20,0,0,2,0,0,0,0,0,0,0,484,0,Yes
1,4,9,0,0,5,0,0,0,0,0,0,0,525,0,Yes
2,2,3,0,1,6,0,0,0,0,0,0,0,778,0,No
2,1,2,0,1,5,0,0,0,0,0,0,0,723,0,No
4,10,27,0,1,6,0,0,0,0,0,0,0,612,0,No
13,3,18,0,0,6,0,0,0,0,0,0,0,1116,0,No
2,0,2,0,0,3,0,0,0,0,0,0,0,1123,0,No
25,0,42,0,1,4,0,0,0,0,0,0,0,1116,0,No
6,2,6,0,0,6,0,0,0,0,0,0,0,1136,0,No
8,0,13,0,0,5,0,0,0,0,0,0,0,517,0,No
17,2,24,0,0,5,0,0,0,0,0,0,0,1107,0,No
8,0,10,0,0,5,0,0,0,0,0,0,0,797,0,No
0,1,0,0,0,5,0,0,0,0,0,0,0,1116,0,No
4,1,4,0,0,4,0,0,0,0,0,0,0,1151,0,No
23,5,31,0,0,5,0,0,0,0,0,0,0,619,0,No
16,1,17,0,0,5,0,0,0,0,0,0,0,612,0,No
0,1,0,0,0,4,0,0,0,0,0,0,0,1116,0,No
6,4,6,0,2,5,0,0,0,0,0,0,0,692,0,No
18,5,18,0,0,5,0,0,0,0,0,0,0,1000,0,No
6,1,8,0,0,4,0,0,0,0,0,0,0,517,0,No
5,2,7,0,0,4,0,0,0,0,0,0,0,517,0,No
8,1,8,0,0,5,0,0,0,0,0,0,0,723,0,No
0,1,0,0,0,5,0,0,0,0,0,0,0,1116,0,No
19,4,21,0,0,7,0,0,0,0,0,0,0,723,0,No
4,0,4,0,0,3,0,0,0,0,0,0,0,1162,0,Yes
6,2,6,0,0,4,0,0,0,0,0,0,0,1151,0,No
5,0,10,0,0,4,0,0,0,0,0,0,0,1000,0,No
4,0,4,0,0,3,0,0,0,0,0,0,0,1000,0,No
8,4,11,0,0,4,0,0,0,0,0,0,0,609,0,No
11,4,19,0,0,5,0,0,0,0,0,0,0,1116,0,No
5,3,7,0,0,5,0,0,0,0,0,0,0,958,0,No
3,2,4,0,0,5,0,0,0,0,0,0,0,1162,0,No
4,3,6,0,0,5,0,0,0,0,0,0,0,1116,0,No
0,1,0,0,0,4,0,0,0,0,0,0,0,1116,0,No
0,1,0,0,0,4,0,0,0,0,0,0,0,1116,0,No
5,3,7,0,0,6,0,0,0,0,0,0,0,1116,0,No
0,1,0,0,0,4,0,0,0,0,0,0,0,1116,0,No
24,7,36,0,0,6,0,0,0,0,0,0,0,1086,0,No
0,0,0,0,0,3,0,0,0,0,0,0,0,1123,0,No
11,4,19,0,0,5,0,0,0,0,0,0,0,1116,0,No
5,3,7,0,0,5,0,0,0,0,0,0,0,958,0,No
3,2,4,0,0,5,0,0,0,0,0,0,0,1162,0,No
4,3,6,0,0,5,0,0,0,0,0,0,0,1116,0,No
0,1,0,0,0,4,0,0,0,0,0,0,0,1116,0,No
3,2,5,0,0,5,0,0,0,0,0,0,0,1162,0,No
0,1,0,0,0,4,0,0,0,0,0,0,0,1116,0,No
5,3,8,0,0,6,0,0,0,0,0,0,0,1116,0,No
0,1,0,0,0,4,0,0,0,0,0,0,0,1116,0,No
45,13,84,0,0,5,0,0,0,0,0,0,0,1116,0,No
11,4,19,0,0,5,0,0,0,0,0,0,0,1116,0,No
5,3,7,0,0,5,0,0,0,0,0,0,0,958,0,No
3,2,4,0,0,5,0,0,0,0,0,0,0,1162,0,No
4,3,6,0,0,5,0,0,0,0,0,0,0,1116,0,No
0,2,0,0,0,4,0,0,0,0,0,0,0,1116,0,Yes
3,2,5,0,0,5,0,0,0,0,0,0,0,1162,0,No
0,2,0,0,0,4,0,0,0,0,0,0,0,1116,0,Yes
5,3,8,0,0,6,0,0,0,0,0,0,0,1116,0,No
0,2,0,0,0,4,0,0,0,0,0,0,0,1116,0,Yes
5,2,5,0,0,4,0,0,0,0,0,0,0,1162,0,No
5,2,5,0,0,4,0,0,0,0,0,0,0,1162,0,No
4,5,4,0,0,6,0,0,0,0,0,0,0,1162,0,No
4,3,4,0,0,6,0,0,0,0,0,0,0,1162,0,Yes
5,2,5,0,0,4,0,0,0,0,0,0,0,1162,0,No
4,2,4,0,0,4,0,0,0,0,0,0,0,1162,0,No
2,1,2,0,0,5,0,0,0,0,0,0,0,1123,0,No
4,1,4,0,0,3,0,0,0,0,0,0,0,1123,0,No
5,2,5,0,0,4,0,0,0,0,0,0,0,1162,0,No
5,4,5,0,0,4,0,0,0,0,0,0,0,1162,0,No
6,3,6,0,0,4,0,0,0,0,0,0,0,1162,0,No
5,3,5,0,0,4,0,0,0,0,0,0,0,1162,0,No
5,4,5,0,0,4,0,0,0,0,0,0,0,1162,0,No
1,0,1,0,0,4,0,0,0,0,0,0,0,1123,0,No
0,0,0,0,0,5,0,0,0,0,0,0,0,1123,0,No
4,2,4,0,0,4,0,0,0,0,0,0,0,723,0,No
8,5,8,0,1,4,0,0,0,0,0,0,0,1123,0,No
7,2,7,0,0,4,0,0,0,0,0,0,0,1162,0,Yes
7,3,7,0,0,4,0,0,0,0,0,0,0,1162,0,No
6,4,6,0,0,4,0,0,0,0,0,0,0,1162,0,No
5,4,5,0,0,4,0,0,0,0,0,0,0,1162,0,No
10,3,10,0,0,4,0,0,0,0,0,0,0,1162,0,Yes
8,3,8,0,0,4,0,0,0,0,0,0,0,1162,0,No
13,5,13,0,0,6,0,0,0,0,0,0,0,1162,0,Yes
4,2,4,0,0,4,0,0,0,0,0,0,0,723,0,No
5,2,5,0,0,4,0,0,0,0,0,0,0,1162,0,No
5,4,5,0,0,4,0,0,0,0,0,0,0,1162,0,No
8,2,12,0,0,4,0,0,0,0,0,0,0,1162,0,Yes
5,2,7,0,0,4,0,0,0,0,0,0,0,1151,0,No
5,2,7,0,0,4,0,0,0,0,0,0,0,1151,0,No
4,6,9,0,0,5,0,0,0,0,0,0,0,1151,0,No
5,2,7,0,0,4,0,0,0,0,0,0,0,1151,0,No
5,7,8,0,0,4,0,0,0,0,0,0,0,1151,0,No
6,5,9,0,0,4,0,0,0,0,0,0,0,1151,0,No
5,4,8,0,0,4,0,0,0,0,0,0,0,525,0,No
5,6,7,0,0,5,0,0,0,0,0,0,0,1086,0,No
4,3,4,0,0,4,0,0,0,0,0,0,0,619,0,No
8,6,14,0,0,4,0,0,0,0,0,0,0,692,0,No
7,3,10,0,0,4,0,0,0,0,0,0,0,517,0,Yes
8,4,12,0,0,4,0,0,0,0,0,0,0,517,0,No
6,14,23,0,0,7,0,0,0,0,0,0,0,1107,0,No
21,15,45,0,0,7,0,0,0,0,0,0,0,1151,0,Yes
5,7,8,0,0,4,0,0,0,0,0,0,0,1151,0,No
11,6,21,0,0,5,0,0,0,0,0,0,0,1151,0,Yes
9,7,14,0,0,4,0,0,0,0,0,0,0,1151,0,No
15,11,32,0,0,9,0,0,0,0,0,0,0,906,0,Yes
4,3,4,0,0,4,0,0,0,0,0,0,0,619,0,No
5,2,7,0,0,4,0,0,0,0,0,0,0,1151,0,No
5,7,8,0,0,4,0,0,0,0,0,0,0,1151,0,No
2,2,2,0,0,4,0,0,0,0,0,0,0,1133,0,No
1,2,2,0,0,5,0,0,0,0,0,0,0,1162,0,No
1,3,6,0,0,6,0,0,0,0,0,0,0,1162,0,No
1,2,2,0,0,5,0,0,0,0,0,0,0,1133,0,Yes
0,1,0,0,0,5,0,0,0,0,0,0,0,1162,0,No
0,0,0,0,0,3,0,0,0,0,0,0,0,1162,0,No
1,1,1,0,0,3,0,0,0,0,0,0,0,1133,0,No
1,1,1,0,1,4,0,0,0,0,0,0,0,1162,0,Yes
0,0,0,0,0,4,0,0,0,0,0,0,0,958,0,No
0,0,0,0,0,4,0,0,0,0,0,0,0,958,0,No
0,0,0,0,0,4,0,0,0,0,0,0,0,958,0,No
0,0,0,0,0,4,0,0,0,0,0,0,0,958,0,No
1,0,2,0,0,4,0,0,0,0,0,0,0,958,0,No
0,0,0,0,0,4,0,0,0,0,0,0,0,958,0,No
4,1,7,0,1,5,0,0,0,0,0,0,0,958,0,Yes
0,0,0,0,0,4,0,0,0,0,0,0,0,723,0,No
0,0,0,0,0,4,0,0,0,0,0,0,0,958,0,No
0,0,0,0,0,4,0,0,0,0,0,0,0,723,0,No
0,0,0,0,0,4,0,0,0,0,0,0,0,723,0,No
0,0,0,0,0,4,0,0,0,0,0,0,0,723,0,No
0,0,0,0,0,4,0,0,0,0,0,0,0,958,0,No
0,0,0,0,0,4,0,0,0,0,0,0,0,723,0,No
0,0,0,0,0,4,0,0,0,0,0,0,0,958,0,No
0,0,0,0,0,5,0,0,0,0,0,0,0,958,0,No
0,0,0,0,0,4,0,0,0,0,0,0,0,958,0,No
1,3,23,0,2,7,0,0,0,0,0,0,0,622,0,No
0,0,0,0,0,4,0,0,0,0,0,0,0,1123,0,No
12,2,58,0,0,7,0,0,0,0,0,0,0,679,0,No
0,0,0,0,0,4,0,0,0,0,0,0,0,1123,0,No
0,0,0,0,0,5,0,0,0,0,0,0,0,1123,0,No
1,1,1,0,1,6,0,0,0,0,0,0,0,622,0,No
17,4,17,0,0,3,0,0,0,0,0,0,0,175,0,No
4,3,4,0,0,4,0,0,0,0,0,0,0,206,0,No
2,2,2,0,0,5,0,0,0,0,0,0,0,1123,0,No
16,1,42,8,1,5,4,4,0,0,1,1,1,1077,0,No
1,0,1,0,0,4,0,0,0,0,0,0,0,1162,0,No
1,1,1,0,0,4,0,0,0,0,0,0,0,514,0,No
4,2,4,0,0,2,0,0,0,0,0,0,0,262,0,No
0,0,0,0,0,6,0,0,0,0,0,0,0,1123,0,No
1,4,3,0,0,4,0,0,0,0,0,0,0,240,0,No
2,7,11,13,2,4,12,12,11,11,2,4,4,218,0,No
0,0,0,0,0,3,0,0,0,0,0,0,0,1123,0,No
1,0,1,15,2,3,15,12,15,12,2,5,9,1123,0,No
1,0,1,9,1,3,9,9,9,9,1,3,7,1123,0,No
0,0,0,0,0,3,0,0,0,0,0,0,0,1123,0,No
4,5,5,0,1,4,0,0,0,0,0,0,0,723,0,No
0,0,0,0,0,4,0,0,0,0,0,0,0,723,0,No
2,1,2,0,0,5,0,0,0,0,0,0,0,517,0,No
0,1,0,0,0,4,0,0,0,0,0,0,0,723,0,No
1,2,10,0,1,2,0,0,0,0,0,0,0,492,0,No
2,7,3,0,0,4,0,0,0,0,0,0,0,941,0,No
5,13,11,0,1,6,0,0,0,0,0,0,0,1114,0,Yes
11,27,28,0,1,7,0,0,0,0,0,0,0,1091,0,Yes
5,13,11,0,1,6,0,0,0,0,0,0,0,1119,0,No
1,0,1,0,0,4,0,0,0,0,0,0,0,1162,0,No
8,13,15,0,0,7,0,0,0,0,0,0,0,609,0,No
5,13,11,0,1,7,0,0,0,0,0,0,0,797,0,No
9,9,9,0,0,5,0,0,0,0,0,0,0,612,0,No
2,2,2,0,0,4,0,0,0,0,0,0,0,1087,0,No
4,9,31,0,0,6,0,0,0,0,0,0,0,1102,0,No
4,6,7,0,0,4,0,0,0,0,0,0,0,1114,0,Yes
3,2,3,0,0,5,0,0,0,0,0,0,0,619,0,No
3,15,29,0,0,5,0,0,0,0,0,0,0,678,0,Yes
13,23,57,0,2,6,0,0,0,0,0,0,0,1100,0,No
4,10,9,0,0,4,0,0,0,0,0,0,0,1114,0,Yes
8,0,10,0,0,4,0,0,0,0,0,0,0,1129,0,No
6,8,10,0,0,6,0,0,0,0,0,0,0,609,0,No
4,2,4,0,0,5,0,0,0,0,0,0,0,797,0,No
2,2,4,0,0,4,0,0,0,0,0,0,0,311,0,No
1,1,3,0,0,1,0,0,0,0,0,0,0,100,0,No
1,7,9,0,2,4,0,0,0,0,0,0,0,938,0,No
10,8,10,0,1,4,0,0,0,0,0,0,0,174,0,No
14,10,16,0,0,5,0,0,0,0,0,0,0,173,0,Yes
1,0,1,0,0,6,0,0,0,0,0,0,0,1162,0,No
32,0,32,0,0,3,0,0,0,0,0,0,0,174,0,No
2,4,2,0,0,5,0,0,0,0,0,0,0,1162,0,No
6,4,6,0,0,2,0,0,0,0,0,0,0,168,0,Yes
8,10,22,0,1,4,0,0,0,0,0,0,0,169,0,Yes
14,9,15,0,0,3,0,0,0,0,0,0,0,168,0,Yes
11,10,11,0,0,5,0,0,0,0,0,0,0,173,0,No
14,7,14,0,0,2,0,0,0,0,0,0,0,167,0,Yes
6,11,21,0,0,4,0,0,0,0,0,0,0,170,0,No
16,17,24,0,0,5,0,0,0,0,0,0,0,163,0,Yes
7,5,10,0,0,2,0,0,0,0,0,0,0,168,0,Yes
26,10,26,0,1,4,0,0,0,0,0,0,0,164,0,Yes
5,4,5,0,1,6,0,0,0,0,0,0,0,1162,0,No
1,1,1,0,1,6,0,0,0,0,0,0,0,1123,0,No
15,3,20,0,0,6,0,0,0,0,0,0,0,615,0,No
7,22,27,0,1,4,0,0,0,0,0,0,0,199,0,No
3,0,3,0,0,3,0,0,0,0,0,0,0,1162,0,No
13,1,16,0,2,1,0,0,0,0,0,0,0,133,0,No
0,0,0,0,0,5,0,0,0,0,0,0,0,1123,0,No
4,1,16,0,1,4,0,0,0,0,0,0,0,311,0,No
4,10,20,0,0,4,0,0,0,0,0,0,0,723,0,No
1,0,5,0,1,1,0,0,0,0,0,0,0,106,0,No
5,1,15,0,1,2,0,0,0,0,0,0,0,148,0,No
6,1,6,6,1,3,3,3,0,0,1,1,1,148,0,No
5,0,5,0,0,4,0,0,0,0,0,0,0,1162,0,No
2,1,4,0,0,4,0,0,0,0,0,0,0,594,0,No
14,0,18,0,1,5,0,0,0,0,0,0,0,546,0,No
8,3,8,0,1,4,0,0,0,0,0,0,0,240,0,No
0,1,0,0,1,5,0,0,0,0,0,0,0,723,0,No
3,0,3,0,1,6,0,0,0,0,0,0,0,1123,0,No
9,1,9,0,1,4,0,0,0,0,0,0,0,612,0,No
0,0,0,0,0,3,0,0,0,0,0,0,0,1123,0,No
5,9,5,0,0,4,0,0,0,0,0,0,0,240,0,No
11,11,11,0,0,3,0,0,0,0,0,0,0,240,0,No
4,7,4,0,0,3,0,0,0,0,0,0,0,240,0,No
13,9,13,0,1,8,0,0,0,0,0,0,0,630,0,No
15,11,19,0,4,7,0,0,0,0,0,0,0,647,0,Yes
1,1,1,0,0,3,0,0,0,0,0,0,0,723,0,No
1,0,1,2,0,3,1,1,0,0,2,4,8,723,0,No
4,0,4,0,0,3,0,0,0,0,0,0,0,723,0,No
2,3,2,0,0,3,0,0,0,0,0,0,0,636,0,No
1,1,1,0,1,4,0,0,0,0,0,0,0,723,0,No
1,3,1,0,0,5,0,0,0,0,0,0,0,636,0,No
1,2,2,0,1,4,0,0,0,0,0,0,0,636,0,No
1,2,1,0,0,3,0,0,0,0,0,0,0,636,0,No
1,4,1,0,0,5,0,0,0,0,0,0,0,636,0,No
1,0,2,0,0,4,0,0,0,0,0,0,0,1239,0,No
2,0,2,0,0,4,0,0,0,0,0,0,0,615,0,No
8,6,9,0,2,2,0,0,0,0,0,0,0,266,0,No
13,8,17,0,0,3,0,0,0,0,0,0,0,266,0,No
2,3,2,0,0,4,0,0,0,0,0,0,0,1239,0,No
4,5,14,0,0,2,0,0,0,0,0,0,0,266,0,No
5,3,5,0,0,3,0,0,0,0,0,0,0,261,0,No
9,8,24,0,1,4,0,0,0,0,0,0,0,262,0,No
12,6,13,0,2,3,0,0,0,0,0,0,0,265,0,No
10,9,12,0,1,3,0,0,0,0,0,0,0,265,0,No
13,5,13,0,0,2,0,0,0,0,0,0,0,267,0,No
6,8,13,0,1,3,0,0,0,0,0,0,0,261,0,No
1,0,1,0,0,4,0,0,0,0,0,0,0,1239,0,No
4,2,8,0,1,5,0,0,0,0,0,0,0,1239,0,No
6,3,9,0,0,3,0,0,0,0,0,0,0,260,0,No
25,8,25,0,1,4,0,0,0,0,0,0,0,267,0,No
5,3,5,0,1,1,0,0,0,0,0,0,0,223,0,No
3,3,3,0,0,5,0,0,0,0,0,0,0,1239,0,Yes
3,0,3,0,0,4,0,0,0,0,0,0,0,1239,0,No
0,0,0,0,0,5,0,0,0,0,0,0,0,800,0,No
0,1,0,0,0,4,0,0,0,0,0,0,0,800,0,No
0,0,0,0,0,4,0,0,0,0,0,0,0,800,0,No
35,1,42,0,0,5,0,0,0,0,0,0,0,1155,0,No
11,1,12,0,0,4,0,0,0,0,0,0,0,1155,0,No
2,1,2,0,0,4,0,0,0,0,0,0,0,1239,0,No
25,0,38,0,0,4,0,0,0,0,0,0,0,1175,0,No
2,1,2,0,0,5,0,0,0,0,0,0,0,800,0,No
1,0,1,0,0,4,0,0,0,0,0,0,0,594,0,No
10,3,10,0,0,5,0,0,0,0,0,0,0,594,0,No
12,1,14,0,0,3,0,0,0,0,0,0,0,569,0,No
10,3,10,0,0,5,0,0,0,0,0,0,0,594,0,No
7,1,11,0,0,4,0,0,0,0,0,0,0,1086,0,No
3,1,3,0,0,4,0,0,0,0,0,0,0,1196,0,No
3,1,3,0,0,5,0,0,0,0,0,0,0,1239,0,No
1,0,1,0,0,4,0,0,0,0,0,0,0,1200,0,No
8,3,8,0,1,3,0,0,0,0,0,0,0,266,0,No
13,7,13,0,1,3,0,0,0,0,0,0,0,266,0,No
2,1,2,0,0,4,0,0,0,0,0,0,0,1239,0,No
0,0,0,0,0,5,0,0,0,0,0,0,0,1200,0,No
5,1,5,0,0,4,0,0,0,0,0,0,0,261,0,No
7,3,7,0,1,3,0,0,0,0,0,0,0,262,0,No
12,3,12,0,1,3,0,0,0,0,0,0,0,265,0,No
2,0,2,0,0,5,0,0,0,0,0,0,0,1239,0,No
10,6,10,0,0,3,0,0,0,0,0,0,0,265,0,No
13,3,13,0,0,3,0,0,0,0,0,0,0,267,0,Yes
5,3,5,0,0,3,0,0,0,0,0,0,0,261,0,No
14,8,14,0,0,4,0,0,0,0,0,0,0,262,0,No
25,6,25,0,1,5,0,0,0,0,0,0,0,267,0,Yes
5,2,5,0,1,5,0,0,0,0,0,0,0,1239,0,No
3,2,3,0,0,3,0,0,0,0,0,0,0,266,0,Yes
10,1,14,0,0,4,0,0,0,0,0,0,0,1077,0,No
2,1,2,0,0,4,0,0,0,0,0,0,0,1239,0,No
2,2,2,0,0,4,0,0,0,0,0,0,0,1239,0,No
6,1,8,0,0,2,0,0,0,0,0,0,0,198,0,No
4,1,4,0,0,4,0,0,0,0,0,0,0,1239,0,No
14,2,14,0,0,4,0,0,0,0,0,0,0,1177,0,No
5,1,7,0,1,5,0,0,0,0,0,0,0,615,0,No
3,1,3,0,0,5,0,0,0,0,0,0,0,1239,0,No
2,0,2,0,0,4,0,0,0,0,0,0,0,1196,0,No
3,1,3,0,0,1,0,0,0,0,0,0,0,267,0,No
3,1,3,0,0,4,0,0,0,0,0,0,0,1239,0,No
4,2,4,0,0,4,0,0,0,0,0,0,0,1239,0,No
3,1,3,0,0,4,0,0,0,0,0,0,0,1239,0,No
16,3,16,0,0,5,0,0,0,0,0,0,0,1184,0,No
24,4,27,0,0,6,0,0,0,0,0,0,0,696,0,No
2,2,2,0,0,4,0,0,0,0,0,0,0,1239,0,No
6,2,6,0,0,4,0,0,0,0,0,0,0,1239,0,No
3,1,3,0,0,1,0,0,0,0,0,0,0,267,0,No
10,2,10,41,0,5,32,23,23,23,5,10,14,591,0,No
18,3,18,0,0,4,0,0,0,0,0,0,0,1077,0,No
2,0,2,0,0,4,0,0,0,0,0,0,0,800,0,No
24,4,32,0,0,5,0,0,0,0,0,0,0,594,0,No
42,4,42,0,1,4,0,0,0,0,0,0,0,1175,0,No
12,0,16,0,0,5,0,0,0,0,0,0,0,1239,0,No
18,1,19,0,0,6,0,0,0,0,0,0,0,1239,0,No
3,1,3,0,0,1,0,0,0,0,0,0,0,267,0,No
2,2,2,0,0,4,0,0,0,0,0,0,0,1239,0,No
18,0,18,0,0,4,0,0,0,0,0,0,0,800,0,No
2,0,2,0,0,4,0,0,0,0,0,0,0,1077,0,No
12,1,16,0,0,6,0,0,0,0,0,0,0,1077,0,No
1,0,1,0,0,5,0,0,0,0,0,0,0,1239,0,No
3,1,3,0,0,4,0,0,0,0,0,0,0,1239,0,No
2,0,2,0,0,5,0,0,0,0,0,0,0,1239,0,No
4,1,4,0,0,4,0,0,0,0,0,0,0,800,0,No
20,2,21,0,0,4,0,0,0,0,0,0,0,702,0,No
22,1,26,13,0,5,13,13,13,13,3,5,7,1200,0,No
5,3,9,0,0,2,0,0,0,0,0,0,0,553,0,Yes
1,0,1,0,0,4,0,0,0,0,0,0,0,1200,0,No
0,0,0,0,1,2,0,0,0,0,0,0,0,220,0,No
48,1,52,0,0,6,0,0,0,0,0,0,0,769,0,No
0,0,0,0,0,4,0,0,0,0,0,0,0,1200,0,No
0,0,0,0,0,4,0,0,0,0,0,0,0,1200,0,No
10,2,11,0,0,8,0,0,0,0,0,0,0,1200,0,No
2,0,9,0,0,4,0,0,0,0,0,0,0,602,0,No
1,0,1,0,0,4,0,0,0,0,0,0,0,1200,0,No
0,0,0,0,0,4,0,0,0,0,0,0,0,1200,0,No
0,0,0,0,0,4,0,0,0,0,0,0,0,800,0,No
0,0,0,0,0,4,0,0,0,0,0,0,0,1200,0,No
11,11,53,0,0,6,0,0,0,0,0,0,0,682,0,Yes
7,1,14,0,2,6,0,0,0,0,0,0,0,1184,0,No
8,1,8,0,0,5,0,0,0,0,0,0,0,1184,0,No
8,14,18,0,0,6,0,0,0,0,0,0,0,1200,0,No
13,31,14,0,2,7,0,0,0,0,0,0,0,1200,0,No
3,0,3,0,0,2,0,0,0,0,0,0,0,401,0,No
0,0,0,0,0,2,0,0,0,0,0,0,0,132,0,No
0,0,0,0,0,4,0,0,0,0,0,0,0,1200,0,No
6,1,10,0,0,4,0,0,0,0,0,0,0,581,0,No
2,0,2,0,0,5,0,0,0,0,0,0,0,800,0,No
1,6,3,0,1,4,0,0,0,0,0,0,0,869,0,No
2,0,3,0,0,3,0,0,0,0,0,0,0,1239,0,No
2,0,7,0,1,5,0,0,0,0,0,0,0,919,0,No
7,0,7,0,0,3,0,0,0,0,0,0,0,1239,0,No
2,0,8,0,0,6,0,0,0,0,0,0,0,1028,0,No
2,0,4,0,0,1,0,0,0,0,0,0,0,238,0,No
4,8,4,0,0,4,0,0,0,0,0,0,0,1200,0,No
2,2,2,0,0,5,0,0,0,0,0,0,0,869,0,No
1,1,1,0,1,5,0,0,0,0,0,0,0,1200,0,No
4,2,4,0,0,3,0,0,0,0,0,0,0,198,0,No
3,5,13,0,0,2,0,0,0,0,0,0,0,204,0,No
2,8,5,0,2,5,0,0,0,0,0,0,0,594,0,Yes
0,0,0,0,0,3,0,0,0,0,0,0,0,1200,0,No
0,0,0,0,0,3,0,0,0,0,0,0,0,800,0,No
0,0,0,37,0,1,37,37,37,37,3,6,9,69,0,No
0,0,0,0,0,3,0,0,0,0,0,0,0,1200,0,No
0,3,0,0,1,6,0,0,0,0,0,0,0,689,0,No
0,2,0,0,1,4,0,0,0,0,0,0,0,869,0,No
3,3,3,0,0,4,0,0,0,0,0,0,0,581,0,No
1,2,1,0,0,5,0,0,0,0,0,0,0,869,0,No
1,2,1,0,0,6,0,0,0,0,0,0,0,799,0,No
1,5,2,0,1,6,0,0,0,0,0,0,0,799,0,No
11,12,16,0,1,7,0,0,0,0,0,0,0,1200,0,Yes
2,2,2,0,0,5,0,0,0,0,0,0,0,869,0,No
2,1,2,0,0,5,0,0,0,0,0,0,0,869,0,No
1,2,1,0,0,6,0,0,0,0,0,0,0,1200,0,No
12,15,51,0,1,3,0,0,0,0,0,0,0,280,0,No
0,3,0,0,0,2,0,0,0,0,0,0,0,132,0,No
0,3,0,0,0,5,0,0,0,0,0,0,0,594,0,No
9,8,13,0,2,6,0,0,0,0,0,0,0,867,0,No
2,0,2,0,0,4,0,0,0,0,0,0,0,1200,0,No
11,13,29,0,1,5,0,0,0,0,0,0,0,784,0,No
19,10,36,0,0,3,0,0,0,0,0,0,0,332,0,No
3,2,3,0,0,3,0,0,0,0,0,0,0,280,0,Yes
1,7,1,0,2,6,0,0,0,0,0,0,0,685,0,No
3,6,4,0,2,5,0,0,0,0,0,0,0,332,0,No
1,5,2,0,0,6,0,0,0,0,0,0,0,696,0,No
10,11,24,0,2,6,0,0,0,0,0,0,0,867,0,No
7,6,7,0,1,6,0,0,0,0,0,0,0,1239,0,Yes
3,2,3,0,2,6,0,0,0,0,0,0,0,699,0,No
2,2,2,0,1,5,0,0,0,0,0,0,0,996,0,No
1,1,1,0,0,5,0,0,0,0,0,0,0,1239,0,No
6,2,6,0,0,6,0,0,0,0,0,0,0,1148,0,No
2,0,2,0,0,4,0,0,0,0,0,0,0,1200,0,No
7,8,9,0,0,6,0,0,0,0,0,0,0,1148,0,Yes
7,7,7,0,0,6,0,0,0,0,0,0,0,689,0,Yes
11,5,12,0,1,6,0,0,0,0,0,0,0,581,0,Yes
7,7,10,0,0,6,0,0,0,0,0,0,0,1169,0,No
11,10,11,0,0,7,0,0,0,0,0,0,0,1169,0,Yes
19,11,32,0,1,7,0,0,0,0,0,0,0,1239,0,No
17,13,23,0,0,8,0,0,0,0,0,0,0,1064,0,Yes
5,5,5,0,0,8,0,0,0,0,0,0,0,682,0,No
14,13,16,0,1,7,0,0,0,0,0,0,0,1190,0,Yes
2,4,2,0,0,6,0,0,0,0,0,0,0,996,0,No
4,0,4,0,0,1,0,0,0,0,0,0,0,581,0,No
2,1,3,0,1,1,0,0,0,0,0,0,0,220,0,No
2,1,3,0,1,3,0,0,0,0,0,0,0,919,0,No
2,0,2,0,1,3,0,0,0,0,0,0,0,919,0,No
3,1,4,0,0,1,0,0,0,0,0,0,0,198,0,No
1,2,10,0,1,4,0,0,0,0,0,0,0,686,0,No
0,0,0,0,0,4,0,0,0,0,0,0,0,1200,0,No
0,0,0,0,0,4,0,0,0,0,0,0,0,1200,0,No
3,0,3,0,0,5,0,0,0,0,0,0,0,689,0,No
1,1,2,0,0,4,0,0,0,0,0,0,0,689,0,No
1,2,3,0,0,4,0,0,0,0,0,0,0,689,0,No
1,0,1,0,0,4,0,0,0,0,0,0,0,1200,0,No
22,3,53,0,2,4,0,0,0,0,0,0,0,608,0,No
2,0,2,0,0,3,0,0,0,0,0,0,0,958,0,No
1,1,1,0,0,4,0,0,0,0,0,0,0,1148,0,No
3,1,3,0,1,5,0,0,0,0,0,0,0,756,0,No
2,1,3,0,0,4,0,0,0,0,0,0,0,1148,0,No
1,0,1,0,0,4,0,0,0,0,0,0,0,1200,0,No
0,0,0,0,0,3,0,0,0,0,0,0,0,1200,0,No
8,1,14,0,0,6,0,0,0,0,0,0,0,756,0,No
1,0,1,0,2,1,0,0,0,0,0,0,0,230,0,No
1,0,1,0,0,5,0,0,0,0,0,0,0,800,0,No
6,4,7,0,0,4,0,0,0,0,0,0,0,685,0,No
1,1,1,0,0,4,0,0,0,0,0,0,0,800,0,No
2,0,2,0,0,3,0,0,0,0,0,0,0,191,0,No
1,4,9,0,0,5,0,0,0,0,0,0,0,602,0,Yes
2,2,3,0,1,6,0,0,0,0,0,0,0,855,0,No
2,1,2,0,1,5,0,0,0,0,0,0,0,800,0,No
13,3,18,0,0,6,0,0,0,0,0,0,0,1193,0,No
2,0,2,0,0,3,0,0,0,0,0,0,0,1200,0,No
25,0,42,0,1,4,0,0,0,0,0,0,0,1193,0,No
6,2,6,0,0,6,0,0,0,0,0,0,0,1213,0,Yes
8,0,13,0,0,5,0,0,0,0,0,0,0,594,0,No
17,2,24,0,0,5,0,0,0,0,0,0,0,1184,0,No
8,0,10,0,0,5,0,0,0,0,0,0,0,874,0,No
0,1,0,0,0,5,0,0,0,0,0,0,0,1193,0,No
4,1,4,0,0,4,0,0,0,0,0,0,0,1228,0,No
23,5,31,13,0,5,2,2,-9,0,2,6,9,696,0,Yes
16,1,17,0,0,5,0,0,0,0,0,0,0,689,0,No
0,1,0,0,0,4,0,0,0,0,0,0,0,1193,0,No
6,4,6,0,2,5,0,0,0,0,0,0,0,769,0,No
18,5,18,0,0,5,0,0,0,0,0,0,0,1077,0,Yes
6,1,8,0,0,4,0,0,0,0,0,0,0,594,0,No
5,2,7,0,0,4,0,0,0,0,0,0,0,594,0,No
8,1,8,0,0,5,0,0,0,0,0,0,0,800,0,No
0,1,0,0,0,5,0,0,0,0,0,0,0,1193,0,No
19,4,21,0,0,7,0,0,0,0,0,0,0,800,0,No
4,1,4,6,1,3,4,4,2,2,2,11,47,1239,0,No
6,2,6,0,0,4,0,0,0,0,0,0,0,1228,0,No
5,0,10,0,0,4,0,0,0,0,0,0,0,1077,0,No
4,0,4,0,0,3,0,0,0,0,0,0,0,1077,0,No
8,4,11,0,0,4,0,0,0,0,0,0,0,686,0,No
11,4,19,0,0,5,0,0,0,0,0,0,0,1193,0,No
5,3,7,0,0,5,0,0,0,0,0,0,0,1035,0,No
3,2,4,0,0,5,0,0,0,0,0,0,0,1239,0,No
4,3,6,0,0,5,0,0,0,0,0,0,0,1193,0,No
0,1,0,0,0,4,0,0,0,0,0,0,0,1193,0,No
0,1,0,0,0,4,0,0,0,0,0,0,0,1193,0,No
5,3,7,0,0,6,0,0,0,0,0,0,0,1193,0,No
0,1,0,0,0,4,0,0,0,0,0,0,0,1193,0,No
24,7,36,0,0,6,0,0,0,0,0,0,0,1163,0,No
0,0,0,0,0,3,0,0,0,0,0,0,0,1200,0,No
11,4,19,0,0,5,0,0,0,0,0,0,0,1193,0,No
5,3,7,0,0,5,0,0,0,0,0,0,0,1035,0,No
3,2,4,0,0,5,0,0,0,0,0,0,0,1239,0,No
4,3,6,0,0,5,0,0,0,0,0,0,0,1193,0,No
0,1,0,0,0,4,0,0,0,0,0,0,0,1193,0,No
3,2,5,0,0,5,0,0,0,0,0,0,0,1239,0,No
0,1,0,0,0,4,0,0,0,0,0,0,0,1193,0,No
5,3,8,0,0,6,0,0,0,0,0,0,0,1193,0,No
0,1,0,0,0,4,0,0,0,0,0,0,0,1193,0,No
45,13,84,0,0,5,0,0,0,0,0,0,0,1193,0,Yes
11,4,19,0,0,5,0,0,0,0,0,0,0,1193,0,No
5,3,7,0,0,5,0,0,0,0,0,0,0,1035,0,No
3,2,4,0,0,5,0,0,0,0,0,0,0,1239,0,No
4,3,6,0,0,5,0,0,0,0,0,0,0,1193,0,No
0,1,0,2,1,4,0,0,-2,0,2,11,47,1193,0,No
3,2,5,0,0,5,0,0,0,0,0,0,0,1239,0,No
0,1,0,2,1,4,0,0,-2,0,2,11,47,1193,0,No
5,3,8,0,0,6,0,0,0,0,0,0,0,1193,0,No
0,1,0,2,1,4,0,0,-2,0,2,11,47,1193,0,No
5,2,5,0,0,4,0,0,0,0,0,0,0,1239,0,No
5,2,5,0,0,4,0,0,0,0,0,0,0,1239,0,No
4,5,4,0,0,6,0,0,0,0,0,0,0,1239,0,No
4,3,4,0,0,6,0,0,0,0,0,0,0,1239,0,Yes
5,2,5,0,0,4,0,0,0,0,0,0,0,1239,0,No
4,2,4,0,0,4,0,0,0,0,0,0,0,1239,0,No
2,1,2,0,0,5,0,0,0,0,0,0,0,1200,0,No
4,1,4,0,0,3,0,0,0,0,0,0,0,1200,0,No
5,2,5,0,0,4,0,0,0,0,0,0,0,1239,0,No
5,4,5,0,0,4,0,0,0,0,0,0,0,1239,0,No
6,3,6,0,0,4,0,0,0,0,0,0,0,1239,0,No
5,3,5,0,0,4,0,0,0,0,0,0,0,1239,0,No
5,4,5,0,0,4,0,0,0,0,0,0,0,1239,0,No
1,0,1,0,0,4,0,0,0,0,0,0,0,1200,0,No
0,0,0,0,0,5,0,0,0,0,0,0,0,1200,0,Yes
4,2,4,0,0,4,0,0,0,0,0,0,0,800,0,No
8,5,8,0,1,4,0,0,0,0,0,0,0,1200,0,No
7,2,7,0,0,4,0,0,0,0,0,0,0,1239,0,Yes
7,3,7,0,0,4,0,0,0,0,0,0,0,1239,0,No
6,4,6,0,0,4,0,0,0,0,0,0,0,1239,0,No
5,4,5,0,0,4,0,0,0,0,0,0,0,1239,0,No
10,3,10,0,0,4,0,0,0,0,0,0,0,1239,0,Yes
8,3,8,0,0,4,0,0,0,0,0,0,0,1239,0,No
13,5,13,0,0,6,0,0,0,0,0,0,0,1239,0,Yes
4,2,4,0,0,4,0,0,0,0,0,0,0,800,0,No
5,2,5,0,0,4,0,0,0,0,0,0,0,1239,0,No
5,4,5,0,0,4,0,0,0,0,0,0,0,1239,0,No
8,2,12,0,0,4,0,0,0,0,0,0,0,1239,0,Yes
5,2,7,0,0,4,0,0,0,0,0,0,0,1228,0,No
5,2,7,0,0,4,0,0,0,0,0,0,0,1228,0,No
4,6,9,0,0,5,0,0,0,0,0,0,0,1228,0,No
5,2,7,0,0,4,0,0,0,0,0,0,0,1228,0,No
5,7,8,0,0,4,0,0,0,0,0,0,0,1228,0,No
6,5,9,0,0,4,0,0,0,0,0,0,0,1228,0,No
5,4,8,0,0,4,0,0,0,0,0,0,0,602,0,No
5,6,7,0,0,5,0,0,0,0,0,0,0,1163,0,No
4,3,4,0,0,4,0,0,0,0,0,0,0,696,0,No
8,6,14,0,0,4,0,0,0,0,0,0,0,769,0,No
7,3,10,0,0,4,0,0,0,0,0,0,0,594,0,Yes
8,4,12,0,0,4,0,0,0,0,0,0,0,594,0,No
6,14,23,0,0,7,0,0,0,0,0,0,0,1184,0,No
21,15,45,0,0,7,0,0,0,0,0,0,0,1228,0,Yes
5,7,8,0,0,4,0,0,0,0,0,0,0,1228,0,No
11,6,21,0,0,5,0,0,0,0,0,0,0,1228,0,Yes
9,7,14,0,0,4,0,0,0,0,0,0,0,1228,0,No
15,11,32,0,0,9,0,0,0,0,0,0,0,983,0,Yes
4,3,4,0,0,4,0,0,0,0,0,0,0,696,0,No
5,2,7,0,0,4,0,0,0,0,0,0,0,1228,0,No
5,7,8,0,0,4,0,0,0,0,0,0,0,1228,0,No
2,2,2,0,0,4,0,0,0,0,0,0,0,1210,0,No
1,2,2,0,0,5,0,0,0,0,0,0,0,1239,0,No
1,3,6,0,0,6,0,0,0,0,0,0,0,1239,0,No
1,2,2,6,1,5,2,2,-2,0,2,11,47,1210,0,No
0,1,0,0,0,5,0,0,0,0,0,0,0,1239,0,No
0,0,0,0,0,3,0,0,0,0,0,0,0,1239,0,No
1,1,1,0,0,3,0,0,0,0,0,0,0,1210,0,No
2,1,2,15,3,4,13,12,11,11,3,12,49,1239,0,No
0,0,0,0,0,4,0,0,0,0,0,0,0,1035,0,No
0,0,0,0,0,4,0,0,0,0,0,0,0,1035,0,No
0,0,0,0,0,4,0,0,0,0,0,0,0,1035,0,No
0,0,0,0,0,4,0,0,0,0,0,0,0,1035,0,No
1,0,2,2,0,4,1,1,0,0,1,1,1,1035,0,No
0,0,0,0,0,4,0,0,0,0,0,0,0,1035,0,No
4,1,7,10,2,5,5,5,0,0,2,11,47,1035,0,No
0,0,0,0,0,4,0,0,0,0,0,0,0,800,0,No
1,2,7,11,2,5,2,1,-7,0,4,17,56,696,0,No
0,0,0,0,0,4,0,0,0,0,0,0,0,1035,0,No
0,0,0,0,0,4,0,0,0,0,0,0,0,800,0,No
0,0,0,0,0,4,0,0,0,0,0,0,0,800,0,No
0,0,0,0,0,4,0,0,0,0,0,0,0,800,0,No
0,0,0,0,0,4,0,0,0,0,0,0,0,1035,0,No
0,0,0,4,1,4,2,2,0,0,2,11,47,1035,0,No
2,13,17,127,1,1,127,127,127,127,2,11,47,6,0,No
1,3,5,63,2,5,20,20,-23,0,2,11,47,1035,0,No
0,0,0,0,0,4,0,0,0,0,0,0,0,800,0,No
1,3,7,64,2,9,26,26,-12,0,2,11,47,794,0,No
0,0,0,7,1,4,3,3,-1,0,2,11,47,1035,0,No
1,2,2,22,2,3,7,7,-8,0,2,11,47,336,0,No
0,0,0,0,0,4,0,0,0,0,0,0,0,1035,0,No
1,2,3,8,2,3,1,1,-6,0,2,11,47,336,0,No
0,0,0,0,0,5,0,0,0,0,0,0,0,1035,0,No
3,13,23,8,2,7,1,1,-6,0,2,11,47,706,0,No
1,3,24,23,2,7,13,13,3,3,3,5,7,699,0,No
0,0,0,0,0,4,0,0,0,0,0,0,0,1200,0,No
12,2,58,0,0,7,0,0,0,0,0,0,0,756,0,No
0,0,0,0,0,4,0,0,0,0,0,0,0,1200,0,No
0,0,0,0,0,5,0,0,0,0,0,0,0,1200,0,No
1,1,1,0,1,6,0,0,0,0,0,0,0,699,0,No
17,4,17,0,0,3,0,0,0,0,0,0,0,252,0,No
4,3,4,0,0,4,0,0,0,0,0,0,0,283,0,No
2,2,2,0,0,5,0,0,0,0,0,0,0,1200,0,No
16,1,42,0,1,5,0,0,0,0,0,0,0,1154,0,No
1,0,1,0,0,4,0,0,0,0,0,0,0,1239,0,Yes
1,1,1,5,0,4,3,2,1,1,5,10,14,591,0,No
4,2,4,0,0,2,0,0,0,0,0,0,0,339,0,No
0,0,0,0,0,6,0,0,0,0,0,0,0,1200,0,No
3,5,9,42,0,5,38,33,34,33,6,12,17,317,0,No
2,7,11,0,2,4,0,0,0,0,0,0,0,295,0,Yes
0,0,0,0,0,3,0,0,0,0,0,0,0,1200,0,No
1,0,1,0,2,3,0,0,0,0,0,0,0,1200,0,No
1,0,1,0,1,3,0,0,0,0,0,0,0,1200,0,No
0,0,0,0,0,3,0,0,0,0,0,0,0,1200,0,No
4,5,5,0,1,4,0,0,0,0,0,0,0,800,0,No
0,0,0,0,0,4,0,0,0,0,0,0,0,800,0,No
2,1,2,0,0,5,0,0,0,0,0,0,0,594,0,No
0,1,0,0,0,4,0,0,0,0,0,0,0,800,0,No
1,2,10,0,1,2,0,0,0,0,0,0,0,569,0,No
2,7,3,0,0,4,0,0,0,0,0,0,0,1018,0,Yes
5,13,11,1,2,6,0,0,-1,0,2,11,47,1191,0,Yes
11,28,31,26,1,7,22,22,18,18,1,2,3,1168,0,Yes
5,13,11,0,1,6,0,0,0,0,0,0,0,1196,0,Yes
1,0,1,0,0,4,0,0,0,0,0,0,0,1239,0,No
8,13,15,0,0,7,0,0,0,0,0,0,0,686,0,Yes
5,13,11,0,1,7,0,0,0,0,0,0,0,874,0,Yes
9,9,9,0,0,5,0,0,0,0,0,0,0,689,0,Yes
2,2,2,0,0,4,0,0,0,0,0,0,0,1164,0,No
4,9,31,0,0,6,0,0,0,0,0,0,0,1179,0,No
4,6,7,11,1,4,5,5,-1,0,2,11,47,1191,0,Yes
3,2,3,0,0,5,0,0,0,0,0,0,0,696,0,Yes
3,15,29,0,0,5,0,0,0,0,0,0,0,755,0,No
13,23,57,0,2,6,0,0,0,0,0,0,0,1177,0,Yes
4,10,9,0,0,4,0,0,0,0,0,0,0,1191,0,Yes
8,0,10,0,0,4,0,0,0,0,0,0,0,1206,0,No
6,8,10,0,0,6,0,0,0,0,0,0,0,686,0,No
4,2,4,0,0,5,0,0,0,0,0,0,0,874,0,No
2,2,4,0,0,4,0,0,0,0,0,0,0,388,0,No
1,1,3,0,0,1,0,0,0,0,0,0,0,177,0,No
1,7,9,0,2,4,0,0,0,0,0,0,0,1015,0,No
10,8,10,0,1,4,0,0,0,0,0,0,0,251,0,No
14,10,16,0,0,5,0,0,0,0,0,0,0,250,0,No
1,0,1,0,0,6,0,0,0,0,0,0,0,1239,0,No
32,0,32,0,0,3,0,0,0,0,0,0,0,251,0,No
2,4,2,0,0,5,0,0,0,0,0,0,0,1239,0,No
6,4,6,0,0,2,0,0,0,0,0,0,0,245,0,No
8,10,22,0,1,4,0,0,0,0,0,0,0,246,0,No
14,9,15,0,0,3,0,0,0,0,0,0,0,245,0,Yes
11,10,11,0,0,5,0,0,0,0,0,0,0,250,0,No
14,7,14,0,0,2,0,0,0,0,0,0,0,244,0,Yes
6,11,21,0,0,4,0,0,0,0,0,0,0,247,0,No
16,17,24,0,0,5,0,0,0,0,0,0,0,240,0,Yes
7,5,10,0,0,2,0,0,0,0,0,0,0,245,0,No
26,10,26,0,1,4,0,0,0,0,0,0,0,241,0,Yes
5,4,5,0,1,6,0,0,0,0,0,0,0,1239,0,No
1,1,1,0,1,6,0,0,0,0,0,0,0,1200,0,No
15,3,20,0,0,6,0,0,0,0,0,0,0,692,0,No
7,22,27,0,1,4,0,0,0,0,0,0,0,276,0,Yes
3,0,3,0,0,3,0,0,0,0,0,0,0,1239,0,No
13,1,16,0,2,1,0,0,0,0,0,0,0,210,0,No
0,0,0,0,0,5,0,0,0,0,0,0,0,1200,0,No
4,1,16,0,1,4,0,0,0,0,0,0,0,388,0,No
4,10,20,0,0,4,0,0,0,0,0,0,0,800,0,No
1,0,5,0,1,1,0,0,0,0,0,0,0,183,0,No
5,1,15,0,1,2,0,0,0,0,0,0,0,225,0,No
6,1,6,0,1,3,0,0,0,0,0,0,0,225,0,No
5,0,5,0,0,4,0,0,0,0,0,0,0,1239,0,No
2,1,4,0,0,4,0,0,0,0,0,0,0,671,0,No
14,0,18,0,1,5,0,0,0,0,0,0,0,623,0,No
8,3,8,0,1,4,0,0,0,0,0,0,0,317,0,Yes
0,1,0,0,1,5,0,0,0,0,0,0,0,800,0,No
3,0,3,0,1,6,0,0,0,0,0,0,0,1200,0,No
9,1,9,0,1,4,0,0,0,0,0,0,0,689,0,No
0,0,0,0,0,3,0,0,0,0,0,0,0,1200,0,No
5,9,5,0,0,4,0,0,0,0,0,0,0,317,0,No
11,11,11,0,0,3,0,0,0,0,0,0,0,317,0,Yes
4,7,4,0,0,3,0,0,0,0,0,0,0,317,0,No
13,9,13,0,1,8,0,0,0,0,0,0,0,707,0,No
15,11,19,4,5,7,2,2,0,0,1,1,1,724,0,Yes
1,1,1,0,0,3,0,0,0,0,0,0,0,800,0,No
1,0,1,0,0,3,0,0,0,0,0,0,0,800,0,No
4,0,4,0,0,3,0,0,0,0,0,0,0,800,0,No
2,3,2,0,0,3,0,0,0,0,0,0,0,713,0,No
1,1,1,0,1,4,0,0,0,0,0,0,0,800,0,No
1,3,1,0,0,5,0,0,0,0,0,0,0,713,0,No
1,2,2,0,1,4,0,0,0,0,0,0,0,713,0,No
1,2,1,0,0,3,0,0,0,0,0,0,0,713,0,No
1,4,1,0,0,5,0,0,0,0,0,0,0,713,0,No
1,0,2,0,0,4,0,0,0,0,0,0,0,1301,0,No
2,0,2,0,0,4,0,0,0,0,0,0,0,677,0,No
8,6,9,0,2,2,0,0,0,0,0,0,0,328,0,No
13,8,17,0,0,3,0,0,0,0,0,0,0,328,0,No
2,3,2,0,0,4,0,0,0,0,0,0,0,1301,0,No
5,6,15,6,1,3,6,6,6,6,4,30,67,328,0,No
5,3,5,0,0,3,0,0,0,0,0,0,0,323,0,No
9,8,24,0,1,4,0,0,0,0,0,0,0,324,0,No
12,6,13,0,2,3,0,0,0,0,0,0,0,327,0,No
10,9,12,0,1,3,0,0,0,0,0,0,0,327,0,No
13,5,13,1,1,2,1,1,1,1,2,3,5,329,0,No
6,8,13,0,1,3,0,0,0,0,0,0,0,323,0,No
1,0,1,0,0,4,0,0,0,0,0,0,0,1301,0,No
4,2,8,0,1,5,0,0,0,0,0,0,0,1301,0,No
6,3,9,0,0,3,0,0,0,0,0,0,0,322,0,No
25,8,25,1,2,4,1,1,1,1,2,3,5,329,0,No
5,3,5,0,1,1,0,0,0,0,0,0,0,285,0,No
2,3,2,8,1,6,0,0,-8,0,4,19,27,1301,0,No
3,0,3,10,0,4,5,5,0,0,4,22,49,1301,0,No
0,0,0,0,0,5,0,0,0,0,0,0,0,862,0,No
0,1,0,0,0,4,0,0,0,0,0,0,0,862,0,No
0,0,0,0,0,4,0,0,0,0,0,0,0,862,0,No
35,1,42,36,0,5,18,13,0,8,3,15,24,1217,0,No
11,1,12,0,0,4,0,0,0,0,0,0,0,1217,0,No
2,1,2,0,0,4,0,0,0,0,0,0,0,1301,0,No
25,0,38,0,0,4,0,0,0,0,0,0,0,1237,0,No
2,1,2,0,0,5,0,0,0,0,0,0,0,862,0,No
1,0,1,0,0,4,0,0,0,0,0,0,0,656,0,No
10,3,10,2,0,5,1,1,0,0,2,2,2,656,0,No
12,1,14,0,0,3,0,0,0,0,0,0,0,631,0,No
10,3,10,0,0,5,0,0,0,0,0,0,0,656,0,No
7,1,11,0,0,4,0,0,0,0,0,0,0,1148,0,No
3,1,3,0,0,4,0,0,0,0,0,0,0,1258,0,No
3,1,3,0,0,5,0,0,0,0,0,0,0,1301,0,No
1,0,1,0,0,4,0,0,0,0,0,0,0,1262,0,No
8,3,8,0,1,3,0,0,0,0,0,0,0,328,0,No
13,7,13,0,1,3,0,0,0,0,0,0,0,328,0,No
2,1,2,0,0,4,0,0,0,0,0,0,0,1301,0,No
0,0,0,0,0,5,0,0,0,0,0,0,0,1262,0,No
5,1,5,0,0,4,0,0,0,0,0,0,0,323,0,No
7,3,7,0,1,3,0,0,0,0,0,0,0,324,0,No
12,3,12,0,1,3,0,0,0,0,0,0,0,327,0,No
2,0,2,0,0,5,0,0,0,0,0,0,0,1301,0,No
10,6,10,0,0,3,0,0,0,0,0,0,0,327,0,No
13,3,13,0,0,3,0,0,0,0,0,0,0,329,0,Yes
5,3,5,0,0,3,0,0,0,0,0,0,0,323,0,No
14,8,14,0,0,4,0,0,0,0,0,0,0,324,0,No
25,6,25,0,1,5,0,0,0,0,0,0,0,329,0,Yes
5,2,5,0,1,5,0,0,0,0,0,0,0,1301,0,No
2,2,2,10,1,4,0,0,-10,0,4,19,27,328,0,No
10,1,14,0,0,4,0,0,0,0,0,0,0,1139,0,No
2,1,2,0,0,4,0,0,0,0,0,0,0,1301,0,No
2,2,2,0,0,4,0,0,0,0,0,0,0,1301,0,No
6,1,8,0,0,2,0,0,0,0,0,0,0,260,0,No
4,1,4,0,0,4,0,0,0,0,0,0,0,1301,0,No
14,2,14,0,0,4,0,0,0,0,0,0,0,1239,0,No
5,1,7,0,1,5,0,0,0,0,0,0,0,677,0,No
3,1,3,0,0,5,0,0,0,0,0,0,0,1301,0,No
2,0,2,0,0,4,0,0,0,0,0,0,0,1258,0,No
3,1,3,0,0,1,0,0,0,0,0,0,0,329,0,No
8,2,10,116,2,2,103,87,90,87,11,58,119,22,0,No
3,1,3,0,0,4,0,0,0,0,0,0,0,1301,0,No
4,2,4,0,0,4,0,0,0,0,0,0,0,1301,0,No
3,1,3,0,0,4,0,0,0,0,0,0,0,1301,0,No
16,3,16,0,0,5,0,0,0,0,0,0,0,1246,0,No
24,4,27,0,0,6,0,0,0,0,0,0,0,758,0,No
2,2,2,0,0,4,0,0,0,0,0,0,0,1301,0,No
6,2,6,0,0,4,0,0,0,0,0,0,0,1301,0,No
3,1,3,0,0,1,0,0,0,0,0,0,0,329,0,No
10,2,10,0,0,5,0,0,0,0,0,0,0,653,0,No
18,3,18,0,0,4,0,0,0,0,0,0,0,1139,0,No
2,0,2,0,0,4,0,0,0,0,0,0,0,862,0,No
24,4,32,0,0,5,0,0,0,0,0,0,0,656,0,No
42,4,42,0,1,4,0,0,0,0,0,0,0,1237,0,No
12,0,16,0,0,5,0,0,0,0,0,0,0,1301,0,No
18,1,19,2,0,6,1,1,0,0,4,22,49,1301,0,No
3,1,3,0,0,1,0,0,0,0,0,0,0,329,0,No
2,2,2,0,0,4,0,0,0,0,0,0,0,1301,0,No
18,0,18,0,0,4,0,0,0,0,0,0,0,862,0,No
2,0,2,0,0,4,0,0,0,0,0,0,0,1139,0,No
12,1,16,0,0,6,0,0,0,0,0,0,0,1139,0,No
1,0,1,0,0,5,0,0,0,0,0,0,0,1301,0,No
3,1,3,0,0,4,0,0,0,0,0,0,0,1301,0,No
2,0,2,0,0,5,0,0,0,0,0,0,0,1301,0,No
4,1,4,0,0,4,0,0,0,0,0,0,0,862,0,No
20,2,21,0,0,4,0,0,0,0,0,0,0,764,0,No
22,1,26,0,0,5,0,0,0,0,0,0,0,1262,0,No
7,4,10,84,2,3,52,47,20,23,12,71,143,615,0,No
1,0,1,0,0,4,0,0,0,0,0,0,0,1262,0,No
0,0,0,0,1,2,0,0,0,0,0,0,0,282,0,No
48,1,52,0,0,6,0,0,0,0,0,0,0,831,0,No
0,0,0,0,0,4,0,0,0,0,0,0,0,1262,0,No
0,0,0,3,0,4,2,2,1,1,2,6,11,1262,0,No
10,2,11,0,0,8,0,0,0,0,0,0,0,1262,0,No
2,0,9,0,0,4,0,0,0,0,0,0,0,664,0,No
1,0,1,0,0,4,0,0,0,0,0,0,0,1262,0,No
0,0,0,0,0,4,0,0,0,0,0,0,0,1262,0,No
0,0,0,0,0,4,0,0,0,0,0,0,0,862,0,No
0,0,0,0,0,4,0,0,0,0,0,0,0,1262,0,No
11,11,53,2,0,6,1,1,0,0,4,22,49,744,0,Yes
17,10,34,9,2,4,8,8,7,7,4,30,67,313,0,No
7,1,14,0,2,6,0,0,0,0,0,0,0,1246,0,No
8,1,8,0,0,5,0,0,0,0,0,0,0,1246,0,No
8,14,18,0,0,6,0,0,0,0,0,0,0,1262,0,Yes
13,31,14,0,2,7,0,0,0,0,0,0,0,1262,0,No
3,0,3,0,0,2,0,0,0,0,0,0,0,463,0,No
0,0,0,0,0,2,0,0,0,0,0,0,0,194,0,No
0,0,0,0,0,4,0,0,0,0,0,0,0,1262,0,No
6,1,10,2,0,4,1,1,0,0,4,22,49,643,0,No
2,0,2,0,0,5,0,0,0,0,0,0,0,862,0,No
1,6,3,0,1,4,0,0,0,0,0,0,0,931,0,No
2,0,3,0,0,3,0,0,0,0,0,0,0,1301,0,No
2,0,7,0,1,5,0,0,0,0,0,0,0,981,0,No
7,0,7,4,0,3,2,2,0,0,4,22,49,1301,0,No
2,0,8,0,0,6,0,0,0,0,0,0,0,1090,0,No
2,0,4,0,0,1,0,0,0,0,0,0,0,300,0,No
4,8,4,0,0,4,0,0,0,0,0,0,0,1262,0,No
2,2,2,0,0,5,0,0,0,0,0,0,0,931,0,No
1,1,1,0,1,5,0,0,0,0,0,0,0,1262,0,No
4,2,4,0,0,3,0,0,0,0,0,0,0,260,0,Yes
3,5,13,0,0,2,0,0,0,0,0,0,0,266,0,No
2,8,5,1,2,5,0,0,-1,0,4,22,49,656,0,Yes
0,0,0,0,0,3,0,0,0,0,0,0,0,1262,0,Yes
0,0,0,0,0,3,0,0,0,0,0,0,0,862,0,No
0,0,0,0,0,1,0,0,0,0,0,0,0,131,0,No
0,0,0,0,0,3,0,0,0,0,0,0,0,1262,0,No
0,3,0,0,1,6,0,0,0,0,0,0,0,751,0,No
0,2,0,0,1,4,0,0,0,0,0,0,0,931,0,No
3,3,3,0,0,4,0,0,0,0,0,0,0,643,0,No
1,2,1,0,0,5,0,0,0,0,0,0,0,931,0,No
1,2,1,0,0,6,0,0,0,0,0,0,0,861,0,No
1,5,2,0,1,6,0,0,0,0,0,0,0,861,0,No
11,12,16,0,1,7,0,0,0,0,0,0,0,1262,0,Yes
2,2,2,0,0,5,0,0,0,0,0,0,0,931,0,No
2,1,2,0,0,5,0,0,0,0,0,0,0,931,0,No
1,2,1,0,0,6,0,0,0,0,0,0,0,1262,0,No
12,15,51,2,1,3,1,1,0,0,4,22,49,342,0,No
0,3,0,0,0,2,0,0,0,0,0,0,0,194,0,No
0,3,0,0,0,5,0,0,0,0,0,0,0,656,0,No
9,8,13,0,2,6,0,0,0,0,0,0,0,929,0,No
2,0,2,0,0,4,0,0,0,0,0,0,0,1262,0,No
11,13,29,0,1,5,0,0,0,0,0,0,0,846,0,Yes
19,10,36,0,0,3,0,0,0,0,0,0,0,394,0,Yes
3,6,4,0,2,5,0,0,0,0,0,0,0,394,0,No
10,1,14,207,2,2,187,110,167,110,8,41,97,22,0,No
1,5,2,0,0,6,0,0,0,0,0,0,0,758,0,Yes
10,11,24,0,2,6,0,0,0,0,0,0,0,929,0,No
7,6,7,0,1,6,0,0,0,0,0,0,0,1301,0,Yes
3,2,3,0,2,6,0,0,0,0,0,0,0,761,0,No
2,2,2,0,1,5,0,0,0,0,0,0,0,1058,0,No
1,1,1,0,0,5,0,0,0,0,0,0,0,1301,0,No
6,2,6,0,0,6,0,0,0,0,0,0,0,1210,0,No
2,0,2,0,0,4,0,0,0,0,0,0,0,1262,0,No
8,7,11,22,1,6,14,14,6,6,4,30,67,1210,0,No
6,5,6,6,1,6,0,0,-6,0,4,19,27,751,0,No
11,5,12,0,1,6,0,0,0,0,0,0,0,643,0,Yes
7,7,10,0,0,6,0,0,0,0,0,0,0,1231,0,No
11,10,11,0,0,7,0,0,0,0,0,0,0,1231,0,Yes
19,11,32,0,1,7,0,0,0,0,0,0,0,1301,0,Yes
17,13,23,0,0,8,0,0,0,0,0,0,0,1126,0,Yes
5,5,5,0,0,8,0,0,0,0,0,0,0,744,0,No
14,13,16,0,1,7,0,0,0,0,0,0,0,1252,0,Yes
2,4,2,0,0,6,0,0,0,0,0,0,0,1058,0,No
4,0,4,0,0,1,0,0,0,0,0,0,0,643,0,No
2,1,3,0,1,1,0,0,0,0,0,0,0,282,0,No
2,1,3,0,1,3,0,0,0,0,0,0,0,981,0,No
2,0,2,0,1,3,0,0,0,0,0,0,0,981,0,No
3,1,4,0,0,1,0,0,0,0,0,0,0,260,0,No
1,2,10,0,1,4,0,0,0,0,0,0,0,748,0,No
0,0,0,0,0,4,0,0,0,0,0,0,0,1262,0,No
0,0,0,0,0,4,0,0,0,0,0,0,0,1262,0,No
3,0,3,0,0,5,0,0,0,0,0,0,0,751,0,Yes
1,0,2,30,1,4,20,20,10,10,4,30,67,1262,0,No
1,0,2,34,1,5,17,17,0,0,4,30,67,751,0,No
1,1,2,0,0,4,0,0,0,0,0,0,0,751,0,No
1,2,3,0,0,4,0,0,0,0,0,0,0,751,0,No
1,0,1,0,0,4,0,0,0,0,0,0,0,1262,0,No
22,3,53,0,2,4,0,0,0,0,0,0,0,670,0,No
2,0,2,0,0,3,0,0,0,0,0,0,0,1020,0,Yes
1,1,1,0,0,4,0,0,0,0,0,0,0,1210,0,No
3,1,3,0,1,5,0,0,0,0,0,0,0,818,0,No
2,1,3,0,0,4,0,0,0,0,0,0,0,1210,0,No
1,0,1,0,0,4,0,0,0,0,0,0,0,1262,0,No
0,0,0,0,0,3,0,0,0,0,0,0,0,1262,0,No
8,1,14,0,0,6,0,0,0,0,0,0,0,818,0,No
1,0,1,0,2,1,0,0,0,0,0,0,0,292,0,No
1,0,1,0,0,5,0,0,0,0,0,0,0,862,0,No
6,4,7,0,0,4,0,0,0,0,0,0,0,747,0,No
1,1,1,0,0,4,0,0,0,0,0,0,0,862,0,No
2,0,2,0,0,3,0,0,0,0,0,0,0,253,0,No
1,4,9,0,0,5,0,0,0,0,0,0,0,664,0,Yes
2,2,3,0,1,6,0,0,0,0,0,0,0,917,0,No
2,1,2,0,1,5,0,0,0,0,0,0,0,862,0,No
13,3,18,0,0,6,0,0,0,0,0,0,0,1255,0,No
2,0,2,0,0,3,0,0,0,0,0,0,0,1262,0,No
25,0,42,0,1,4,0,0,0,0,0,0,0,1255,0,No
6,1,6,11,1,6,3,3,-5,0,1,9,19,1275,0,No
8,0,13,0,0,5,0,0,0,0,0,0,0,656,0,No
17,2,24,0,0,5,0,0,0,0,0,0,0,1246,0,No
8,0,10,0,0,5,0,0,0,0,0,0,0,936,0,No
0,1,0,0,0,5,0,0,0,0,0,0,0,1255,0,No
4,1,4,0,0,4,0,0,0,0,0,0,0,1290,0,No
23,5,31,3,1,5,0,0,-3,0,1,5,7,758,0,No
16,1,17,0,0,5,0,0,0,0,0,0,0,751,0,No
0,1,0,0,0,4,0,0,0,0,0,0,0,1255,0,No
6,4,6,0,2,5,0,0,0,0,0,0,0,831,0,No
18,5,18,0,0,5,0,0,0,0,0,0,0,1139,0,No
6,1,8,0,0,4,0,0,0,0,0,0,0,656,0,No
5,2,7,0,0,4,0,0,0,0,0,0,0,656,0,No
8,1,8,0,0,5,0,0,0,0,0,0,0,862,0,No
0,1,0,0,0,5,0,0,0,0,0,0,0,1255,0,No
19,4,21,0,0,7,0,0,0,0,0,0,0,862,0,No
4,1,4,0,1,3,0,0,0,0,0,0,0,1301,0,No
6,2,6,0,0,4,0,0,0,0,0,0,0,1290,0,No
5,0,10,0,0,4,0,0,0,0,0,0,0,1139,0,No
4,0,4,0,0,3,0,0,0,0,0,0,0,1139,0,No
8,4,11,0,0,4,0,0,0,0,0,0,0,748,0,No
11,4,19,0,0,5,0,0,0,0,0,0,0,1255,0,Yes
5,3,7,0,0,5,0,0,0,0,0,0,0,1097,0,No
3,2,4,0,0,5,0,0,0,0,0,0,0,1301,0,No
4,3,6,0,0,5,0,0,0,0,0,0,0,1255,0,No
0,1,0,0,0,4,0,0,0,0,0,0,0,1255,0,No
0,1,0,0,0,4,0,0,0,0,0,0,0,1255,0,No
5,3,7,0,0,6,0,0,0,0,0,0,0,1255,0,Yes
0,1,0,0,0,4,0,0,0,0,0,0,0,1255,0,No
24,7,36,0,0,6,0,0,0,0,0,0,0,1225,0,No
0,0,0,0,0,3,0,0,0,0,0,0,0,1262,0,No
11,4,19,0,0,5,0,0,0,0,0,0,0,1255,0,Yes
5,3,7,0,0,5,0,0,0,0,0,0,0,1097,0,No
3,2,4,0,0,5,0,0,0,0,0,0,0,1301,0,No
4,3,6,0,0,5,0,0,0,0,0,0,0,1255,0,No
0,1,0,0,0,4,0,0,0,0,0,0,0,1255,0,No
3,2,5,0,0,5,0,0,0,0,0,0,0,1301,0,No
0,1,0,0,0,4,0,0,0,0,0,0,0,1255,0,No
5,3,8,0,0,6,0,0,0,0,0,0,0,1255,0,No
0,1,0,0,0,4,0,0,0,0,0,0,0,1255,0,No
45,13,84,0,0,5,0,0,0,0,0,0,0,1255,0,No
11,4,19,0,0,5,0,0,0,0,0,0,0,1255,0,Yes
5,3,7,0,0,5,0,0,0,0,0,0,0,1097,0,No
3,2,4,0,0,5,0,0,0,0,0,0,0,1301,0,No
4,3,6,0,0,5,0,0,0,0,0,0,0,1255,0,No
0,1,0,0,1,4,0,0,0,0,0,0,0,1255,0,No
3,2,5,0,0,5,0,0,0,0,0,0,0,1301,0,No
0,1,0,0,1,4,0,0,0,0,0,0,0,1255,0,No
5,3,8,0,0,6,0,0,0,0,0,0,0,1255,0,No
0,1,0,0,1,4,0,0,0,0,0,0,0,1255,0,No
5,2,5,0,0,4,0,0,0,0,0,0,0,1301,0,No
5,2,5,0,0,4,0,0,0,0,0,0,0,1301,0,No
4,5,4,0,0,6,0,0,0,0,0,0,0,1301,0,No
4,3,4,0,0,6,0,0,0,0,0,0,0,1301,0,Yes
5,2,5,0,0,4,0,0,0,0,0,0,0,1301,0,No
4,2,4,0,0,4,0,0,0,0,0,0,0,1301,0,No
2,1,2,0,0,5,0,0,0,0,0,0,0,1262,0,No
4,1,4,0,0,3,0,0,0,0,0,0,0,1262,0,No
5,2,5,0,0,4,0,0,0,0,0,0,0,1301,0,No
5,4,5,0,0,4,0,0,0,0,0,0,0,1301,0,No
6,3,6,0,0,4,0,0,0,0,0,0,0,1301,0,No
5,3,5,0,0,4,0,0,0,0,0,0,0,1301,0,No
5,4,5,0,0,4,0,0,0,0,0,0,0,1301,0,No
1,0,1,0,0,4,0,0,0,0,0,0,0,1262,0,No
0,0,0,0,0,5,0,0,0,0,0,0,0,1262,0,No
4,2,4,0,0,4,0,0,0,0,0,0,0,862,0,No
8,5,8,0,1,4,0,0,0,0,0,0,0,1262,0,No
7,2,7,0,0,4,0,0,0,0,0,0,0,1301,0,Yes
7,3,7,0,0,4,0,0,0,0,0,0,0,1301,0,No
6,4,6,0,0,4,0,0,0,0,0,0,0,1301,0,No
5,4,5,0,0,4,0,0,0,0,0,0,0,1301,0,No
10,3,10,0,0,4,0,0,0,0,0,0,0,1301,0,Yes
8,3,8,0,0,4,0,0,0,0,0,0,0,1301,0,No
13,5,13,0,0,6,0,0,0,0,0,0,0,1301,0,Yes
4,2,4,0,0,4,0,0,0,0,0,0,0,862,0,No
5,2,5,0,0,4,0,0,0,0,0,0,0,1301,0,No
5,4,5,0,0,4,0,0,0,0,0,0,0,1301,0,No
8,2,12,0,0,4,0,0,0,0,0,0,0,1301,0,Yes
5,2,7,0,0,4,0,0,0,0,0,0,0,1290,0,No
5,2,7,0,0,4,0,0,0,0,0,0,0,1290,0,Yes
4,6,9,0,0,5,0,0,0,0,0,0,0,1290,0,No
5,2,7,0,0,4,0,0,0,0,0,0,0,1290,0,No
5,7,8,0,0,4,0,0,0,0,0,0,0,1290,0,No
6,5,9,0,0,4,0,0,0,0,0,0,0,1290,0,No
5,4,8,0,0,4,0,0,0,0,0,0,0,664,0,No
5,6,7,0,0,5,0,0,0,0,0,0,0,1225,0,No
4,3,4,0,0,4,0,0,0,0,0,0,0,758,0,No
8,6,14,0,0,4,0,0,0,0,0,0,0,831,0,No
7,3,10,0,0,4,0,0,0,0,0,0,0,656,0,Yes
8,4,12,0,0,4,0,0,0,0,0,0,0,656,0,No
6,14,23,0,0,7,0,0,0,0,0,0,0,1246,0,No
21,15,45,0,0,7,0,0,0,0,0,0,0,1290,0,Yes
5,7,8,0,0,4,0,0,0,0,0,0,0,1290,0,No
11,6,21,0,0,5,0,0,0,0,0,0,0,1290,0,Yes
9,7,14,0,0,4,0,0,0,0,0,0,0,1290,0,No
15,11,32,0,0,9,0,0,0,0,0,0,0,1045,0,Yes
4,3,4,0,0,4,0,0,0,0,0,0,0,758,0,No
5,2,7,0,0,4,0,0,0,0,0,0,0,1290,0,No
5,7,8,0,0,4,0,0,0,0,0,0,0,1290,0,No
2,2,2,0,0,4,0,0,0,0,0,0,0,1272,0,No
1,2,2,0,0,5,0,0,0,0,0,0,0,1301,0,No
1,3,6,0,0,6,0,0,0,0,0,0,0,1301,0,No
1,2,2,0,1,5,0,0,0,0,0,0,0,1272,0,No
0,1,0,0,0,5,0,0,0,0,0,0,0,1301,0,No
0,0,0,0,0,3,0,0,0,0,0,0,0,1301,0,No
1,1,1,0,0,3,0,0,0,0,0,0,0,1272,0,No
2,1,2,0,3,4,0,0,0,0,0,0,0,1301,0,No
0,0,0,0,0,4,0,0,0,0,0,0,0,1097,0,No
0,0,0,0,0,4,0,0,0,0,0,0,0,1097,0,No
0,0,0,0,0,4,0,0,0,0,0,0,0,1097,0,No
0,0,0,0,0,4,0,0,0,0,0,0,0,1097,0,No
1,0,2,0,0,4,0,0,0,0,0,0,0,1097,0,No
0,0,0,0,0,4,0,0,0,0,0,0,0,1097,0,No
4,1,7,0,2,5,0,0,0,0,0,0,0,1097,0,No
0,0,0,0,0,4,0,0,0,0,0,0,0,862,0,No
1,2,7,0,2,5,0,0,0,0,0,0,0,758,0,No
0,0,0,0,0,4,0,0,0,0,0,0,0,1097,0,No
0,0,0,0,0,4,0,0,0,0,0,0,0,862,0,No
0,0,0,0,0,4,0,0,0,0,0,0,0,862,0,No
0,0,0,0,0,4,0,0,0,0,0,0,0,862,0,No
0,0,0,0,0,4,0,0,0,0,0,0,0,1097,0,No
0,0,0,0,1,4,0,0,0,0,0,0,0,1097,0,No
2,13,17,0,1,1,0,0,0,0,0,0,0,68,0,No
1,3,5,0,2,5,0,0,0,0,0,0,0,1097,0,No
0,0,0,0,0,4,0,0,0,0,0,0,0,862,0,No
1,3,7,0,2,9,0,0,0,0,0,0,0,856,0,No
0,0,0,0,1,4,0,0,0,0,0,0,0,1097,0,No
1,2,2,0,2,3,0,0,0,0,0,0,0,398,0,No
0,0,0,0,0,4,0,0,0,0,0,0,0,1097,0,No
1,2,3,0,2,3,0,0,0,0,0,0,0,398,0,No
0,0,0,0,0,5,0,0,0,0,0,0,0,1097,0,No
3,13,23,0,2,7,0,0,0,0,0,0,0,768,0,No
1,3,24,0,2,7,0,0,0,0,0,0,0,761,0,No
0,0,0,0,0,4,0,0,0,0,0,0,0,1262,0,No
12,2,58,0,0,7,0,0,0,0,0,0,0,818,0,No
0,0,0,0,0,4,0,0,0,0,0,0,0,1262,0,No
0,0,0,0,0,5,0,0,0,0,0,0,0,1262,0,No
1,1,1,0,1,6,0,0,0,0,0,0,0,761,0,No
17,4,17,0,0,3,0,0,0,0,0,0,0,314,0,No
4,3,4,0,0,4,0,0,0,0,0,0,0,345,0,No
2,2,2,0,0,5,0,0,0,0,0,0,0,1262,0,No
16,1,42,0,1,5,0,0,0,0,0,0,0,1216,0,No
1,0,1,1,1,4,0,0,-1,0,1,9,19,1301,0,No
3,3,3,27,0,4,22,22,17,17,2,13,22,653,0,No
4,2,4,20,1,2,16,12,12,12,3,22,41,401,0,No
0,0,0,0,0,6,0,0,0,0,0,0,0,1262,0,No
4,5,10,53,0,5,27,27,1,1,2,13,22,379,0,No
2,7,11,13,3,4,5,4,-3,0,2,10,20,357,0,No
0,0,0,0,0,3,0,0,0,0,0,0,0,1262,0,No
1,0,1,0,2,3,0,0,0,0,0,0,0,1262,0,No
1,0,1,0,1,3,0,0,0,0,0,0,0,1262,0,No
0,0,0,0,0,3,0,0,0,0,0,0,0,1262,0,No
4,1,5,13,1,4,4,4,-5,0,4,22,49,862,0,No
0,0,0,0,0,4,0,0,0,0,0,0,0,862,0,No
2,1,2,0,0,5,0,0,0,0,0,0,0,656,0,No
0,1,0,0,0,4,0,0,0,0,0,0,0,862,0,No
2,2,11,51,1,3,46,46,41,41,2,6,11,631,0,No
10,0,10,101,0,1,101,101,101,101,2,6,11,27,0,No
3,4,4,26,1,5,12,12,-2,0,4,30,67,1080,0,No
1,0,1,6,0,4,3,3,0,0,3,9,25,1301,0,No
0,0,0,57,1,2,46,31,35,31,7,39,92,22,0,No
9,9,21,85,1,7,26,24,-33,0,7,39,92,748,0,No
2,2,2,67,0,4,33,33,-1,0,2,13,22,1262,0,No
2,2,2,0,0,4,0,0,0,0,0,0,0,1226,0,No
4,9,31,0,0,6,0,0,0,0,0,0,0,1241,0,No
2,2,2,18,0,5,11,11,4,4,2,13,22,1262,0,No
4,6,7,6,2,4,1,1,-4,0,1,9,19,1253,0,No
3,2,3,3,1,5,0,0,-3,0,4,30,67,758,0,No
3,12,29,3,0,5,0,0,-3,0,4,22,49,817,0,Yes
13,23,57,7,3,6,2,2,-3,0,1,9,19,1239,0,No
4,10,9,7,2,5,2,1,-3,0,5,39,86,1253,0,No
8,0,10,0,0,4,0,0,0,0,0,0,0,1268,0,No
6,8,10,0,0,6,0,0,0,0,0,0,0,748,0,No
4,2,4,0,0,5,0,0,0,0,0,0,0,936,0,No
2,2,4,0,0,4,0,0,0,0,0,0,0,450,0,No
1,1,3,0,0,1,0,0,0,0,0,0,0,239,0,No
1,7,9,0,2,4,0,0,0,0,0,0,0,1077,0,No
10,8,10,0,1,4,0,0,0,0,0,0,0,313,0,No
14,10,16,0,0,5,0,0,0,0,0,0,0,312,0,No
1,0,1,0,0,6,0,0,0,0,0,0,0,1301,0,No
32,0,32,0,0,3,0,0,0,0,0,0,0,313,0,No
2,4,2,0,0,5,0,0,0,0,0,0,0,1301,0,No
6,4,6,0,0,2,0,0,0,0,0,0,0,307,0,No
8,10,22,0,1,4,0,0,0,0,0,0,0,308,0,No
14,9,15,0,0,3,0,0,0,0,0,0,0,307,0,Yes
11,10,11,0,0,5,0,0,0,0,0,0,0,312,0,No
14,7,14,1,1,3,1,1,1,1,2,3,5,306,0,Yes
6,11,21,0,0,4,0,0,0,0,0,0,0,309,0,No
16,17,24,0,0,5,0,0,0,0,0,0,0,302,0,Yes
7,5,10,0,0,2,0,0,0,0,0,0,0,307,0,No
26,10,26,1,2,5,1,1,1,1,2,3,5,303,0,Yes
5,4,5,0,1,6,0,0,0,0,0,0,0,1301,0,No
1,1,1,0,1,6,0,0,0,0,0,0,0,1262,0,No
15,3,20,0,0,6,0,0,0,0,0,0,0,754,0,No
7,25,29,46,2,5,40,40,34,34,4,30,67,338,0,Yes
3,0,3,0,0,3,0,0,0,0,0,0,0,1301,0,No
13,1,16,0,2,1,0,0,0,0,0,0,0,272,0,No
0,0,0,0,0,5,0,0,0,0,0,0,0,1262,0,No
4,1,16,0,1,4,0,0,0,0,0,0,0,450,0,No
4,10,20,0,0,4,0,0,0,0,0,0,0,862,0,No
1,0,5,0,1,1,0,0,0,0,0,0,0,245,0,No
5,1,14,18,1,2,10,10,2,2,1,3,11,287,0,No
6,1,6,0,1,3,0,0,0,0,0,0,0,287,0,No
7,0,8,29,0,4,23,23,17,17,1,3,11,1301,0,No
2,1,4,0,0,4,0,0,0,0,0,0,0,733,0,No
14,0,18,0,1,5,0,0,0,0,0,0,0,685,0,No
7,3,7,8,2,5,0,0,-8,0,4,19,27,379,0,No
0,1,0,0,1,5,0,0,0,0,0,0,0,862,0,No
3,0,3,0,1,6,0,0,0,0,0,0,0,1262,0,No
9,1,9,0,1,4,0,0,0,0,0,0,0,751,0,No
0,0,0,0,0,3,0,0,0,0,0,0,0,1262,0,No
5,9,5,0,0,4,0,0,0,0,0,0,0,379,0,No
10,11,10,10,1,4,0,0,-10,0,4,19,27,379,0,No
4,7,4,0,0,3,0,0,0,0,0,0,0,379,0,No
13,9,13,0,1,8,0,0,0,0,0,0,0,769,0,No
14,11,18,11,6,7,0,0,-11,0,4,19,27,786,0,No
1,1,1,0,0,3,0,0,0,0,0,0,0,862,0,No
1,0,1,0,0,3,0,0,0,0,0,0,0,862,0,No
4,0,4,0,0,3,0,0,0,0,0,0,0,862,0,No
2,3,2,0,0,3,0,0,0,0,0,0,0,775,0,No
1,1,1,0,1,4,0,0,0,0,0,0,0,862,0,No
1,3,1,0,0,5,0,0,0,0,0,0,0,775,0,No
1,2,2,0,1,4,0,0,0,0,0,0,0,775,0,No
1,2,1,0,0,3,0,0,0,0,0,0,0,775,0,No
1,4,1,0,0,5,0,0,0,0,0,0,0,775,0,No
1,0,2,0,0,4,0,0,0,0,0,0,0,1387,0,No
2,0,2,0,0,4,0,0,0,0,0,0,0,763,0,No
8,6,9,0,2,2,0,0,0,0,0,0,0,414,0,No
13,8,17,0,0,3,0,0,0,0,0,0,0,414,0,No
2,3,2,0,0,4,0,0,0,0,0,0,0,1387,0,No
5,6,15,0,1,3,0,0,0,0,0,0,0,414,0,No
5,3,5,0,0,3,0,0,0,0,0,0,0,409,0,No
9,8,24,0,1,4,0,0,0,0,0,0,0,410,0,No
12,6,13,0,2,3,0,0,0,0,0,0,0,413,0,No
10,9,12,0,1,3,0,0,0,0,0,0,0,413,0,No
13,5,13,0,1,2,0,0,0,0,0,0,0,415,0,No
6,8,13,0,1,3,0,0,0,0,0,0,0,409,0,No
1,0,1,0,0,4,0,0,0,0,0,0,0,1387,0,No
4,2,8,0,1,5,0,0,0,0,0,0,0,1387,0,No
6,3,9,0,0,3,0,0,0,0,0,0,0,408,0,No
25,8,25,0,2,4,0,0,0,0,0,0,0,415,0,No
5,3,5,0,1,1,0,0,0,0,0,0,0,371,0,No
2,3,2,0,1,6,0,0,0,0,0,0,0,1387,0,No
3,0,3,0,0,4,0,0,0,0,0,0,0,1387,0,No
0,0,0,0,0,5,0,0,0,0,0,0,0,948,0,No
0,1,0,0,0,4,0,0,0,0,0,0,0,948,0,No
0,0,0,0,0,4,0,0,0,0,0,0,0,948,0,No
35,1,42,0,0,5,0,0,0,0,0,0,0,1303,0,No
11,1,12,0,0,4,0,0,0,0,0,0,0,1303,0,No
2,1,2,0,0,4,0,0,0,0,0,0,0,1387,0,No
25,0,38,0,0,4,0,0,0,0,0,0,0,1323,0,No
2,1,2,0,0,5,0,0,0,0,0,0,0,948,0,No
1,0,1,0,0,4,0,0,0,0,0,0,0,742,0,No
10,3,10,0,0,5,0,0,0,0,0,0,0,742,0,No
12,1,14,0,0,3,0,0,0,0,0,0,0,717,0,No
10,3,10,0,0,5,0,0,0,0,0,0,0,742,0,No
7,1,11,0,0,4,0,0,0,0,0,0,0,1234,0,No
3,1,3,0,0,4,0,0,0,0,0,0,0,1344,0,No
3,1,3,0,0,5,0,0,0,0,0,0,0,1387,0,No
1,0,1,0,0,4,0,0,0,0,0,0,0,1348,0,No
8,3,8,0,1,3,0,0,0,0,0,0,0,414,0,No
13,7,13,0,1,3,0,0,0,0,0,0,0,414,0,No
2,1,2,0,0,4,0,0,0,0,0,0,0,1387,0,No
0,0,0,0,0,5,0,0,0,0,0,0,0,1348,0,No
5,1,5,0,0,4,0,0,0,0,0,0,0,409,0,No
7,3,7,0,1,3,0,0,0,0,0,0,0,410,0,No
12,3,12,0,1,3,0,0,0,0,0,0,0,413,0,No
2,0,2,0,0,5,0,0,0,0,0,0,0,1387,0,No
10,6,10,0,0,3,0,0,0,0,0,0,0,413,0,No
13,3,13,0,0,3,0,0,0,0,0,0,0,415,0,No
5,3,5,0,0,3,0,0,0,0,0,0,0,409,0,No
14,8,14,0,0,4,0,0,0,0,0,0,0,410,0,No
25,6,25,0,1,5,0,0,0,0,0,0,0,415,0,No
5,2,5,0,1,5,0,0,0,0,0,0,0,1387,0,No
2,2,2,0,1,4,0,0,0,0,0,0,0,414,0,No
10,1,14,0,0,4,0,0,0,0,0,0,0,1225,0,No
2,1,2,0,0,4,0,0,0,0,0,0,0,1387,0,No
2,2,2,0,0,4,0,0,0,0,0,0,0,1387,0,No
6,1,8,0,0,2,0,0,0,0,0,0,0,346,0,No
4,1,4,0,0,4,0,0,0,0,0,0,0,1387,0,No
14,2,14,0,0,4,0,0,0,0,0,0,0,1325,0,No
5,1,7,0,1,5,0,0,0,0,0,0,0,763,0,No
3,1,3,0,0,5,0,0,0,0,0,0,0,1387,0,No
2,0,2,0,0,4,0,0,0,0,0,0,0,1344,0,No
3,1,3,0,0,1,0,0,0,0,0,0,0,415,0,No
8,2,10,0,2,2,0,0,0,0,0,0,0,108,0,No
3,1,3,0,0,4,0,0,0,0,0,0,0,1387,0,No
4,2,4,0,0,4,0,0,0,0,0,0,0,1387,0,No
3,1,3,0,0,4,0,0,0,0,0,0,0,1387,0,No
16,3,16,0,0,5,0,0,0,0,0,0,0,1332,0,No
24,4,27,0,0,6,0,0,0,0,0,0,0,844,0,No
2,2,2,0,0,4,0,0,0,0,0,0,0,1387,0,No
8,2,8,26,0,4,25,25,24,24,3,14,39,1387,0,No
3,1,3,0,0,1,0,0,0,0,0,0,0,415,0,No
10,2,10,0,0,5,0,0,0,0,0,0,0,739,0,No
18,3,18,0,0,4,0,0,0,0,0,0,0,1225,0,No
2,0,2,0,0,4,0,0,0,0,0,0,0,948,0,No
24,4,32,0,0,5,0,0,0,0,0,0,0,742,0,No
42,4,42,0,1,4,0,0,0,0,0,0,0,1323,0,No
12,0,16,0,0,5,0,0,0,0,0,0,0,1387,0,No
18,1,19,0,0,6,0,0,0,0,0,0,0,1387,0,No
3,1,3,0,0,1,0,0,0,0,0,0,0,415,0,No
2,2,2,0,0,4,0,0,0,0,0,0,0,1387,0,No
18,0,18,0,0,4,0,0,0,0,0,0,0,948,0,No
2,0,2,0,0,4,0,0,0,0,0,0,0,1225,0,No
12,1,16,0,0,6,0,0,0,0,0,0,0,1225,0,No
1,0,1,0,0,5,0,0,0,0,0,0,0,1387,0,No
3,1,3,0,0,4,0,0,0,0,0,0,0,1387,0,No
2,0,2,0,0,5,0,0,0,0,0,0,0,1387,0,No
4,1,4,0,0,4,0,0,0,0,0,0,0,948,0,No
20,2,21,0,0,4,0,0,0,0,0,0,0,850,0,No
22,1,26,0,0,5,0,0,0,0,0,0,0,1348,0,No
7,4,10,0,2,3,0,0,0,0,0,0,0,701,0,No
1,0,1,0,0,4,0,0,0,0,0,0,0,1348,0,No
0,0,0,0,1,2,0,0,0,0,0,0,0,368,0,No
48,1,52,0,0,6,0,0,0,0,0,0,0,917,0,No
0,0,0,0,0,4,0,0,0,0,0,0,0,1348,0,No
0,0,0,0,0,4,0,0,0,0,0,0,0,1348,0,No
10,2,11,0,0,8,0,0,0,0,0,0,0,1348,0,No
2,0,9,0,0,4,0,0,0,0,0,0,0,750,0,No
1,0,1,0,0,4,0,0,0,0,0,0,0,1348,0,No
0,0,0,0,0,4,0,0,0,0,0,0,0,1348,0,No
0,0,0,0,0,4,0,0,0,0,0,0,0,948,0,No
0,0,0,0,0,4,0,0,0,0,0,0,0,1348,0,No
10,11,54,21,1,6,14,12,7,11,5,18,45,830,0,No
17,10,34,0,2,4,0,0,0,0,0,0,0,399,0,No
7,1,14,0,2,6,0,0,0,0,0,0,0,1332,0,No
8,1,8,0,0,5,0,0,0,0,0,0,0,1332,0,No
8,14,18,0,0,6,0,0,0,0,0,0,0,1348,0,No
13,31,14,0,2,7,0,0,0,0,0,0,0,1348,0,No
3,0,3,0,0,2,0,0,0,0,0,0,0,549,0,No
0,0,0,0,0,2,0,0,0,0,0,0,0,280,0,No
0,0,0,0,0,4,0,0,0,0,0,0,0,1348,0,No
6,1,10,0,0,4,0,0,0,0,0,0,0,729,0,No
2,0,2,0,0,5,0,0,0,0,0,0,0,948,0,No
1,6,3,0,1,4,0,0,0,0,0,0,0,1017,0,No
2,0,3,0,0,3,0,0,0,0,0,0,0,1387,0,No
2,0,7,0,1,5,0,0,0,0,0,0,0,1067,0,No
7,0,7,0,0,3,0,0,0,0,0,0,0,1387,0,No
2,0,8,0,0,6,0,0,0,0,0,0,0,1176,0,No
2,0,4,0,0,1,0,0,0,0,0,0,0,386,0,No
4,8,4,0,0,4,0,0,0,0,0,0,0,1348,0,No
2,2,2,0,0,5,0,0,0,0,0,0,0,1017,0,No
1,1,1,0,1,5,0,0,0,0,0,0,0,1348,0,No
4,2,4,0,0,3,0,0,0,0,0,0,0,346,0,No
3,5,13,0,0,2,0,0,0,0,0,0,0,352,0,No
2,8,5,19,5,5,11,5,3,3,8,29,104,742,0,No
0,0,0,3,1,3,2,2,1,1,1,2,2,1348,0,No
0,0,0,0,0,3,0,0,0,0,0,0,0,948,0,No
0,0,0,0,0,1,0,0,0,0,0,0,0,217,0,No
0,0,0,0,0,3,0,0,0,0,0,0,0,1348,0,No
0,3,0,0,1,6,0,0,0,0,0,0,0,837,0,No
0,2,0,0,1,4,0,0,0,0,0,0,0,1017,0,No
3,3,3,0,0,4,0,0,0,0,0,0,0,729,0,No
1,2,1,0,0,5,0,0,0,0,0,0,0,1017,0,No
1,2,1,0,0,6,0,0,0,0,0,0,0,947,0,No
1,5,2,0,1,6,0,0,0,0,0,0,0,947,0,No
11,12,16,30,3,7,15,8,0,1,3,7,51,1348,0,No
2,2,2,0,0,5,0,0,0,0,0,0,0,1017,0,No
2,1,2,0,0,5,0,0,0,0,0,0,0,1017,0,No
1,2,1,0,0,6,0,0,0,0,0,0,0,1348,0,No
12,15,51,0,1,3,0,0,0,0,0,0,0,428,0,No
0,3,0,0,0,2,0,0,0,0,0,0,0,280,0,No
0,3,0,0,0,5,0,0,0,0,0,0,0,742,0,No
9,8,13,0,2,6,0,0,0,0,0,0,0,1015,0,No
2,0,2,0,0,4,0,0,0,0,0,0,0,1348,0,No
11,13,29,180,3,5,90,46,0,2,3,7,51,932,0,No
19,10,36,14,2,3,7,4,0,1,3,7,51,480,0,No
3,6,4,0,2,5,0,0,0,0,0,0,0,480,0,No
10,1,14,0,2,2,0,0,0,0,0,0,0,108,0,No
1,5,2,1,1,6,0,0,-1,0,2,3,3,844,0,No
10,11,24,0,2,6,0,0,0,0,0,0,0,1015,0,No
7,6,7,0,1,6,0,0,0,0,0,0,0,1387,0,No
3,2,3,0,2,6,0,0,0,0,0,0,0,847,0,No
2,2,2,0,1,5,0,0,0,0,0,0,0,1144,0,No
1,1,1,0,0,5,0,0,0,0,0,0,0,1387,0,No
6,2,6,0,0,6,0,0,0,0,0,0,0,1296,0,No
2,0,2,0,0,4,0,0,0,0,0,0,0,1348,0,No
8,7,11,0,1,6,0,0,0,0,0,0,0,1296,0,No
6,5,6,0,1,6,0,0,0,0,0,0,0,837,0,No
11,5,12,0,1,6,0,0,0,0,0,0,0,729,0,No
7,7,10,0,0,6,0,0,0,0,0,0,0,1317,0,No
11,10,11,0,0,7,0,0,0,0,0,0,0,1317,0,Yes
19,11,32,0,1,7,0,0,0,0,0,0,0,1387,0,Yes
17,13,23,0,0,8,0,0,0,0,0,0,0,1212,0,No
5,5,5,0,0,8,0,0,0,0,0,0,0,830,0,No
14,13,16,0,1,7,0,0,0,0,0,0,0,1338,0,Yes
2,4,2,0,0,6,0,0,0,0,0,0,0,1144,0,No
4,0,4,0,0,1,0,0,0,0,0,0,0,729,0,No
2,1,3,0,1,1,0,0,0,0,0,0,0,368,0,No
2,1,3,0,1,3,0,0,0,0,0,0,0,1067,0,No
2,0,2,0,1,3,0,0,0,0,0,0,0,1067,0,No
3,1,4,0,0,1,0,0,0,0,0,0,0,346,0,No
1,2,10,0,1,4,0,0,0,0,0,0,0,834,0,No
0,0,0,0,0,4,0,0,0,0,0,0,0,1348,0,No
0,0,0,0,0,4,0,0,0,0,0,0,0,1348,0,No
3,0,3,0,0,5,0,0,0,0,0,0,0,837,0,No
1,0,2,0,1,4,0,0,0,0,0,0,0,1348,0,No
1,0,2,0,1,5,0,0,0,0,0,0,0,837,0,No
1,1,2,0,0,4,0,0,0,0,0,0,0,837,0,No
1,2,3,0,0,4,0,0,0,0,0,0,0,837,0,No
1,0,1,0,0,4,0,0,0,0,0,0,0,1348,0,No
22,3,53,0,2,4,0,0,0,0,0,0,0,756,0,No
2,0,2,0,0,3,0,0,0,0,0,0,0,1106,0,No
1,1,1,0,0,4,0,0,0,0,0,0,0,1296,0,No
3,1,3,0,1,5,0,0,0,0,0,0,0,904,0,No
2,1,3,0,0,4,0,0,0,0,0,0,0,1296,0,No
1,0,1,0,0,4,0,0,0,0,0,0,0,1348,0,No
0,0,0,0,0,3,0,0,0,0,0,0,0,1348,0,No
8,1,14,0,0,6,0,0,0,0,0,0,0,904,0,No
1,0,1,0,2,1,0,0,0,0,0,0,0,378,0,No
1,0,1,0,0,5,0,0,0,0,0,0,0,948,0,No
6,4,7,0,0,4,0,0,0,0,0,0,0,833,0,No
1,1,1,0,0,4,0,0,0,0,0,0,0,948,0,No
2,0,2,0,0,3,0,0,0,0,0,0,0,339,0,No
1,4,9,0,0,5,0,0,0,0,0,0,0,750,0,No
2,2,3,0,1,6,0,0,0,0,0,0,0,1003,0,No
2,1,2,0,1,5,0,0,0,0,0,0,0,948,0,No
13,3,18,0,0,6,0,0,0,0,0,0,0,1341,0,No
2,0,2,0,0,3,0,0,0,0,0,0,0,1348,0,No
25,0,42,0,1,4,0,0,0,0,0,0,0,1341,0,No
6,1,6,0,1,6,0,0,0,0,0,0,0,1361,0,No
8,0,13,0,0,5,0,0,0,0,0,0,0,742,0,No
17,2,24,0,0,5,0,0,0,0,0,0,0,1332,0,No
8,0,10,0,0,5,0,0,0,0,0,0,0,1022,0,No
0,1,0,0,0,5,0,0,0,0,0,0,0,1341,0,No
4,1,4,0,0,4,0,0,0,0,0,0,0,1376,0,No
23,5,31,0,1,5,0,0,0,0,0,0,0,844,0,No
16,1,17,0,0,5,0,0,0,0,0,0,0,837,0,No
0,1,0,0,0,4,0,0,0,0,0,0,0,1341,0,No
6,4,6,0,2,5,0,0,0,0,0,0,0,917,0,No
18,5,18,0,0,5,0,0,0,0,0,0,0,1225,0,No
6,1,8,0,0,4,0,0,0,0,0,0,0,742,0,No
5,2,7,0,0,4,0,0,0,0,0,0,0,742,0,No
8,1,8,0,0,5,0,0,0,0,0,0,0,948,0,No
0,1,0,0,0,5,0,0,0,0,0,0,0,1341,0,No
19,4,21,0,0,7,0,0,0,0,0,0,0,948,0,No
4,1,4,0,1,3,0,0,0,0,0,0,0,1387,0,No
6,2,6,0,0,4,0,0,0,0,0,0,0,1376,0,No
5,0,10,0,0,4,0,0,0,0,0,0,0,1225,0,No
4,0,4,0,0,3,0,0,0,0,0,0,0,1225,0,No
8,4,11,0,0,4,0,0,0,0,0,0,0,834,0,No
11,4,19,0,0,5,0,0,0,0,0,0,0,1341,0,Yes
5,3,7,0,0,5,0,0,0,0,0,0,0,1183,0,No
3,2,4,0,0,5,0,0,0,0,0,0,0,1387,0,No
4,3,6,0,0,5,0,0,0,0,0,0,0,1341,0,No
0,1,0,0,0,4,0,0,0,0,0,0,0,1341,0,No
0,1,0,0,0,4,0,0,0,0,0,0,0,1341,0,No
5,3,7,0,0,6,0,0,0,0,0,0,0,1341,0,Yes
0,1,0,0,0,4,0,0,0,0,0,0,0,1341,0,No
24,7,36,0,0,6,0,0,0,0,0,0,0,1311,0,No
0,0,0,0,0,3,0,0,0,0,0,0,0,1348,0,No
11,4,19,0,0,5,0,0,0,0,0,0,0,1341,0,Yes
5,3,7,0,0,5,0,0,0,0,0,0,0,1183,0,No
3,2,4,0,0,5,0,0,0,0,0,0,0,1387,0,No
4,3,6,0,0,5,0,0,0,0,0,0,0,1341,0,No
0,1,0,0,0,4,0,0,0,0,0,0,0,1341,0,No
3,2,5,0,0,5,0,0,0,0,0,0,0,1387,0,No
0,1,0,0,0,4,0,0,0,0,0,0,0,1341,0,No
5,3,8,0,0,6,0,0,0,0,0,0,0,1341,0,No
0,1,0,0,0,4,0,0,0,0,0,0,0,1341,0,No
45,13,84,14,0,5,7,7,0,0,3,14,39,1341,0,No
11,4,19,0,0,5,0,0,0,0,0,0,0,1341,0,Yes
5,3,7,0,0,5,0,0,0,0,0,0,0,1183,0,No
3,2,4,0,0,5,0,0,0,0,0,0,0,1387,0,No
4,3,6,0,0,5,0,0,0,0,0,0,0,1341,0,No
0,1,0,0,1,4,0,0,0,0,0,0,0,1341,0,No
3,2,5,0,0,5,0,0,0,0,0,0,0,1387,0,No
0,1,0,0,1,4,0,0,0,0,0,0,0,1341,0,No
5,3,8,0,0,6,0,0,0,0,0,0,0,1341,0,No
0,1,0,0,1,4,0,0,0,0,0,0,0,1341,0,No
5,2,5,0,0,4,0,0,0,0,0,0,0,1387,0,No
5,2,5,0,0,4,0,0,0,0,0,0,0,1387,0,No
4,5,4,0,0,6,0,0,0,0,0,0,0,1387,0,No
4,3,4,0,0,6,0,0,0,0,0,0,0,1387,0,No
5,2,5,0,0,4,0,0,0,0,0,0,0,1387,0,No
4,2,4,0,0,4,0,0,0,0,0,0,0,1387,0,No
2,1,2,0,0,5,0,0,0,0,0,0,0,1348,0,No
4,1,4,0,0,3,0,0,0,0,0,0,0,1348,0,No
5,2,5,0,0,4,0,0,0,0,0,0,0,1387,0,No
5,4,5,0,0,4,0,0,0,0,0,0,0,1387,0,No
6,3,6,0,0,4,0,0,0,0,0,0,0,1387,0,No
5,3,5,0,0,4,0,0,0,0,0,0,0,1387,0,No
5,4,5,0,0,4,0,0,0,0,0,0,0,1387,0,No
1,0,1,0,0,4,0,0,0,0,0,0,0,1348,0,No
0,0,0,0,0,5,0,0,0,0,0,0,0,1348,0,No
4,2,4,0,0,4,0,0,0,0,0,0,0,948,0,No
8,5,8,0,1,4,0,0,0,0,0,0,0,1348,0,No
7,2,7,0,0,4,0,0,0,0,0,0,0,1387,0,No
7,3,7,0,0,4,0,0,0,0,0,0,0,1387,0,No
8,6,8,6,0,4,6,6,6,6,3,14,39,1387,0,No
19,10,19,8,0,6,7,7,6,6,3,14,39,1387,0,No
5,4,5,0,0,4,0,0,0,0,0,0,0,1387,0,No
10,3,10,0,0,4,0,0,0,0,0,0,0,1387,0,No
8,3,8,0,0,4,0,0,0,0,0,0,0,1387,0,No
13,5,13,0,0,6,0,0,0,0,0,0,0,1387,0,No
4,2,4,0,0,4,0,0,0,0,0,0,0,948,0,No
5,2,5,0,0,4,0,0,0,0,0,0,0,1387,0,No
5,4,5,0,0,4,0,0,0,0,0,0,0,1387,0,No
8,2,12,0,0,4,0,0,0,0,0,0,0,1387,0,No
5,2,7,0,0,4,0,0,0,0,0,0,0,1376,0,No
5,2,7,0,0,4,0,0,0,0,0,0,0,1376,0,Yes
4,6,9,0,0,5,0,0,0,0,0,0,0,1376,0,No
5,2,7,0,0,4,0,0,0,0,0,0,0,1376,0,No
5,7,8,0,0,4,0,0,0,0,0,0,0,1376,0,No
6,5,9,0,0,4,0,0,0,0,0,0,0,1376,0,No
5,4,8,0,0,4,0,0,0,0,0,0,0,750,0,No
5,6,7,0,0,5,0,0,0,0,0,0,0,1311,0,No
4,3,4,0,0,4,0,0,0,0,0,0,0,844,0,No
8,6,14,0,0,4,0,0,0,0,0,0,0,917,0,No
7,3,10,0,0,4,0,0,0,0,0,0,0,742,0,No
8,4,12,0,0,4,0,0,0,0,0,0,0,742,0,No
9,16,32,57,0,7,49,49,41,41,3,14,39,1332,0,No
25,17,60,82,0,7,79,79,76,76,3,14,39,1376,0,No
5,7,8,0,0,4,0,0,0,0,0,0,0,1376,0,No
11,6,21,0,0,5,0,0,0,0,0,0,0,1376,0,No
9,7,14,0,0,4,0,0,0,0,0,0,0,1376,0,No
15,11,32,0,0,9,0,0,0,0,0,0,0,1131,0,No
4,3,4,0,0,4,0,0,0,0,0,0,0,844,0,No
5,2,7,0,0,4,0,0,0,0,0,0,0,1376,0,No
5,7,8,0,0,4,0,0,0,0,0,0,0,1376,0,No
2,2,2,0,0,4,0,0,0,0,0,0,0,1358,0,No
1,2,2,0,0,5,0,0,0,0,0,0,0,1387,0,No
1,3,6,0,0,6,0,0,0,0,0,0,0,1387,0,No
1,2,2,0,1,5,0,0,0,0,0,0,0,1358,0,No
0,1,0,0,0,5,0,0,0,0,0,0,0,1387,0,No
0,0,0,0,0,3,0,0,0,0,0,0,0,1387,0,No
1,1,1,0,0,3,0,0,0,0,0,0,0,1358,0,No
2,1,2,0,3,4,0,0,0,0,0,0,0,1387,0,No
0,0,0,0,0,4,0,0,0,0,0,0,0,1183,0,No
0,0,0,0,0,4,0,0,0,0,0,0,0,1183,0,No
0,0,0,0,0,4,0,0,0,0,0,0,0,1183,0,No
0,0,0,0,0,4,0,0,0,0,0,0,0,1183,0,No
1,0,2,0,0,4,0,0,0,0,0,0,0,1183,0,No
0,0,0,0,0,4,0,0,0,0,0,0,0,1183,0,No
4,1,7,0,2,5,0,0,0,0,0,0,0,1183,0,No
0,0,0,0,0,4,0,0,0,0,0,0,0,948,0,No
1,2,7,0,2,5,0,0,0,0,0,0,0,844,0,No
0,0,0,0,0,4,0,0,0,0,0,0,0,1183,0,No
0,0,0,0,0,4,0,0,0,0,0,0,0,948,0,No
0,0,0,0,0,4,0,0,0,0,0,0,0,948,0,No
0,0,0,0,0,4,0,0,0,0,0,0,0,948,0,No
0,0,0,0,0,4,0,0,0,0,0,0,0,1183,0,No
0,0,0,0,1,4,0,0,0,0,0,0,0,1183,0,No
2,13,17,0,1,1,0,0,0,0,0,0,0,154,0,No
1,3,5,0,2,5,0,0,0,0,0,0,0,1183,0,No
0,0,0,0,0,4,0,0,0,0,0,0,0,948,0,No
1,3,7,0,2,9,0,0,0,0,0,0,0,942,0,No
0,0,0,0,1,4,0,0,0,0,0,0,0,1183,0,No
1,2,2,0,2,3,0,0,0,0,0,0,0,484,0,No
0,0,0,0,0,4,0,0,0,0,0,0,0,1183,0,No
1,2,3,0,2,3,0,0,0,0,0,0,0,484,0,No
0,0,0,0,0,5,0,0,0,0,0,0,0,1183,0,No
3,13,23,0,2,7,0,0,0,0,0,0,0,854,0,No
1,3,24,0,2,7,0,0,0,0,0,0,0,847,0,No
0,0,0,0,0,4,0,0,0,0,0,0,0,1348,0,No
12,2,58,0,0,7,0,0,0,0,0,0,0,904,0,No
0,0,0,0,0,4,0,0,0,0,0,0,0,1348,0,No
0,0,0,0,0,5,0,0,0,0,0,0,0,1348,0,No
1,1,1,0,1,6,0,0,0,0,0,0,0,847,0,No
17,4,17,0,0,3,0,0,0,0,0,0,0,400,0,No
4,3,4,0,0,4,0,0,0,0,0,0,0,431,0,No
2,2,2,0,0,5,0,0,0,0,0,0,0,1348,0,No
16,1,42,0,1,5,0,0,0,0,0,0,0,1302,0,No
1,0,1,0,1,4,0,0,0,0,0,0,0,1387,0,No
3,3,3,0,0,4,0,0,0,0,0,0,0,739,0,No
4,2,4,0,1,2,0,0,0,0,0,0,0,487,0,No
0,0,0,0,0,6,0,0,0,0,0,0,0,1348,0,No
4,5,10,0,0,5,0,0,0,0,0,0,0,465,0,No
2,7,11,0,3,4,0,0,0,0,0,0,0,443,0,No
0,0,0,0,0,3,0,0,0,0,0,0,0,1348,0,No
1,0,1,0,2,3,0,0,0,0,0,0,0,1348,0,No
1,0,1,0,1,3,0,0,0,0,0,0,0,1348,0,No
0,0,0,0,0,3,0,0,0,0,0,0,0,1348,0,No
4,1,5,0,1,4,0,0,0,0,0,0,0,948,0,No
0,0,0,0,0,4,0,0,0,0,0,0,0,948,0,No
2,1,2,0,0,5,0,0,0,0,0,0,0,742,0,No
0,1,0,0,0,4,0,0,0,0,0,0,0,948,0,No
2,2,11,0,1,3,0,0,0,0,0,0,0,717,0,No
10,0,10,0,0,1,0,0,0,0,0,0,0,113,0,No
3,4,4,0,1,5,0,0,0,0,0,0,0,1166,0,No
1,0,1,0,0,4,0,0,0,0,0,0,0,1387,0,No
0,0,0,2,1,2,1,1,0,0,3,14,39,108,0,No
9,9,21,0,1,7,0,0,0,0,0,0,0,834,0,No
2,2,2,0,0,4,0,0,0,0,0,0,0,1348,0,No
2,2,2,0,0,4,0,0,0,0,0,0,0,1312,0,No
4,9,31,0,0,6,0,0,0,0,0,0,0,1327,0,No
2,2,2,0,0,5,0,0,0,0,0,0,0,1348,0,No
4,6,7,0,2,4,0,0,0,0,0,0,0,1339,0,No
3,2,3,0,1,5,0,0,0,0,0,0,0,844,0,No
3,19,35,40,1,5,38,28,36,28,5,19,45,903,0,No
13,23,57,0,3,6,0,0,0,0,0,0,0,1325,0,No
4,10,9,0,2,5,0,0,0,0,0,0,0,1339,0,No
8,0,10,0,0,4,0,0,0,0,0,0,0,1354,0,No
6,8,10,0,0,6,0,0,0,0,0,0,0,834,0,No
4,2,4,0,0,5,0,0,0,0,0,0,0,1022,0,No
2,2,4,0,0,4,0,0,0,0,0,0,0,536,0,No
1,1,3,0,0,1,0,0,0,0,0,0,0,325,0,No
1,7,9,0,2,4,0,0,0,0,0,0,0,1163,0,No
10,8,10,0,1,4,0,0,0,0,0,0,0,399,0,No
14,10,16,0,0,5,0,0,0,0,0,0,0,398,0,No
1,0,1,0,0,6,0,0,0,0,0,0,0,1387,0,No
32,0,32,0,0,3,0,0,0,0,0,0,0,399,0,No
2,4,2,0,0,5,0,0,0,0,0,0,0,1387,0,No
6,4,6,0,0,2,0,0,0,0,0,0,0,393,0,No
8,10,22,0,1,4,0,0,0,0,0,0,0,394,0,No
14,9,15,0,0,3,0,0,0,0,0,0,0,393,0,No
11,10,11,0,0,5,0,0,0,0,0,0,0,398,0,No
14,7,14,0,1,3,0,0,0,0,0,0,0,392,0,No
6,11,21,0,0,4,0,0,0,0,0,0,0,395,0,No
16,17,24,0,0,5,0,0,0,0,0,0,0,388,0,No
7,5,10,0,0,2,0,0,0,0,0,0,0,393,0,No
26,10,26,0,2,5,0,0,0,0,0,0,0,389,0,No
5,4,5,0,1,6,0,0,0,0,0,0,0,1387,0,No
1,1,1,0,1,6,0,0,0,0,0,0,0,1348,0,No
15,3,20,0,0,6,0,0,0,0,0,0,0,840,0,No
7,25,29,4,3,5,3,3,2,2,2,8,14,424,0,No
3,0,3,0,0,3,0,0,0,0,0,0,0,1387,0,No
13,1,16,0,2,1,0,0,0,0,0,0,0,358,0,No
0,0,0,0,0,5,0,0,0,0,0,0,0,1348,0,No
4,1,16,0,1,4,0,0,0,0,0,0,0,536,0,No
4,10,20,0,0,4,0,0,0,0,0,0,0,948,0,No
1,0,5,0,1,1,0,0,0,0,0,0,0,331,0,No
5,1,14,0,1,2,0,0,0,0,0,0,0,373,0,No
6,1,6,0,1,3,0,0,0,0,0,0,0,373,0,No
7,0,8,0,0,4,0,0,0,0,0,0,0,1387,0,No
2,1,4,0,0,4,0,0,0,0,0,0,0,819,0,No
14,0,18,0,1,5,0,0,0,0,0,0,0,771,0,No
7,3,7,0,2,5,0,0,0,0,0,0,0,465,0,No
0,1,0,0,1,5,0,0,0,0,0,0,0,948,0,No
3,0,3,0,1,6,0,0,0,0,0,0,0,1348,0,No
9,1,9,0,1,4,0,0,0,0,0,0,0,837,0,No
0,0,0,0,0,3,0,0,0,0,0,0,0,1348,0,No
5,9,5,0,0,4,0,0,0,0,0,0,0,465,0,No
10,11,10,0,1,4,0,0,0,0,0,0,0,465,0,No
4,7,4,0,0,3,0,0,0,0,0,0,0,465,0,No
13,9,13,0,1,8,0,0,0,0,0,0,0,855,0,No
14,11,18,0,6,7,0,0,0,0,0,0,0,872,0,No
1,1,1,0,0,3,0,0,0,0,0,0,0,948,0,No
1,0,1,0,0,3,0,0,0,0,0,0,0,948,0,No
4,0,4,0,0,3,0,0,0,0,0,0,0,948,0,No
2,3,2,0,0,3,0,0,0,0,0,0,0,861,0,No
1,1,1,0,1,4,0,0,0,0,0,0,0,948,0,No
1,3,1,0,0,5,0,0,0,0,0,0,0,861,0,No
1,2,2,0,1,4,0,0,0,0,0,0,0,861,0,No
1,2,1,0,0,3,0,0,0,0,0,0,0,861,0,No
1,4,1,0,0,5,0,0,0,0,0,0,0,861,0,No
1,0,2,0,0,4,0,0,0,0,0,0,0,1435,0,No
3,0,3,5,1,4,5,5,5,5,3,3,3,811,0,No
8,6,9,0,2,2,0,0,0,0,0,0,0,462,0,No
13,8,17,0,0,3,0,0,0,0,0,0,0,462,0,No
2,3,2,0,0,4,0,0,0,0,0,0,0,1435,0,No
5,6,15,0,1,3,0,0,0,0,0,0,0,462,0,No
5,3,5,0,0,3,0,0,0,0,0,0,0,457,0,No
9,8,24,0,1,4,0,0,0,0,0,0,0,458,0,No
12,6,13,0,2,3,0,0,0,0,0,0,0,461,0,No
10,9,12,0,1,3,0,0,0,0,0,0,0,461,0,No
13,5,13,0,1,2,0,0,0,0,0,0,0,463,0,No
6,8,13,0,1,3,0,0,0,0,0,0,0,457,0,No
1,0,1,0,0,4,0,0,0,0,0,0,0,1435,0,No
4,2,8,0,1,5,0,0,0,0,0,0,0,1435,0,No
6,3,9,0,0,3,0,0,0,0,0,0,0,456,0,No
25,8,25,0,2,4,0,0,0,0,0,0,0,463,0,No
5,3,5,0,1,1,0,0,0,0,0,0,0,419,0,No
2,3,2,0,1,6,0,0,0,0,0,0,0,1435,0,No
3,0,3,0,0,4,0,0,0,0,0,0,0,1435,0,No
0,0,0,0,0,5,0,0,0,0,0,0,0,996,0,No
0,1,0,0,0,4,0,0,0,0,0,0,0,996,0,No
0,0,0,0,0,4,0,0,0,0,0,0,0,996,0,No
35,1,42,0,0,5,0,0,0,0,0,0,0,1351,0,No
11,1,12,0,0,4,0,0,0,0,0,0,0,1351,0,No
2,1,2,0,0,4,0,0,0,0,0,0,0,1435,0,No
25,0,38,0,0,4,0,0,0,0,0,0,0,1371,0,No
2,1,2,0,0,5,0,0,0,0,0,0,0,996,0,No
1,0,1,0,0,4,0,0,0,0,0,0,0,790,0,No
10,3,10,0,0,5,0,0,0,0,0,0,0,790,0,No
12,1,14,0,0,3,0,0,0,0,0,0,0,765,0,No
10,3,10,0,0,5,0,0,0,0,0,0,0,790,0,No
7,1,11,0,0,4,0,0,0,0,0,0,0,1282,0,No
3,1,3,0,0,4,0,0,0,0,0,0,0,1392,0,No
3,1,3,0,0,5,0,0,0,0,0,0,0,1435,0,No
1,0,1,0,0,4,0,0,0,0,0,0,0,1396,0,No
8,3,8,0,1,3,0,0,0,0,0,0,0,462,0,No
13,7,13,0,1,3,0,0,0,0,0,0,0,462,0,No
2,1,2,0,0,4,0,0,0,0,0,0,0,1435,0,No
0,0,0,0,0,5,0,0,0,0,0,0,0,1396,0,No
5,1,5,0,0,4,0,0,0,0,0,0,0,457,0,No
7,3,7,0,1,3,0,0,0,0,0,0,0,458,0,No
12,3,12,0,1,3,0,0,0,0,0,0,0,461,0,No
2,0,2,0,0,5,0,0,0,0,0,0,0,1435,0,No
10,6,10,0,0,3,0,0,0,0,0,0,0,461,0,No
13,3,13,0,0,3,0,0,0,0,0,0,0,463,0,No
5,3,5,0,0,3,0,0,0,0,0,0,0,457,0,No
14,8,14,0,0,4,0,0,0,0,0,0,0,458,0,No
25,6,25,0,1,5,0,0,0,0,0,0,0,463,0,No
5,2,5,0,1,5,0,0,0,0,0,0,0,1435,0,No
2,2,2,0,1,4,0,0,0,0,0,0,0,462,0,No
10,1,14,0,0,4,0,0,0,0,0,0,0,1273,0,No
2,1,2,0,0,4,0,0,0,0,0,0,0,1435,0,No
2,2,2,0,0,4,0,0,0,0,0,0,0,1435,0,No
6,1,8,0,0,2,0,0,0,0,0,0,0,394,0,No
4,1,4,0,0,4,0,0,0,0,0,0,0,1435,0,No
14,2,14,0,0,4,0,0,0,0,0,0,0,1373,0,No
5,1,7,0,1,5,0,0,0,0,0,0,0,811,0,No
3,1,3,0,0,5,0,0,0,0,0,0,0,1435,0,No
2,0,2,0,0,4,0,0,0,0,0,0,0,1392,0,No
3,1,3,0,0,1,0,0,0,0,0,0,0,463,0,No
8,2,10,0,2,2,0,0,0,0,0,0,0,156,0,No
3,1,3,0,0,4,0,0,0,0,0,0,0,1435,0,No
4,2,4,0,0,4,0,0,0,0,0,0,0,1435,0,No
3,1,3,0,0,4,0,0,0,0,0,0,0,1435,0,No
16,3,16,0,0,5,0,0,0,0,0,0,0,1380,0,No
24,4,27,0,0,6,0,0,0,0,0,0,0,892,0,No
2,2,2,0,0,4,0,0,0,0,0,0,0,1435,0,No
8,2,8,0,0,4,0,0,0,0,0,0,0,1435,0,No
3,1,3,0,0,1,0,0,0,0,0,0,0,463,0,No
10,2,10,0,0,5,0,0,0,0,0,0,0,787,0,No
18,3,18,0,0,4,0,0,0,0,0,0,0,1273,0,No
2,0,2,0,0,4,0,0,0,0,0,0,0,996,0,No
24,4,32,0,0,5,0,0,0,0,0,0,0,790,0,No
42,4,42,0,1,4,0,0,0,0,0,0,0,1371,0,No
12,0,16,0,0,5,0,0,0,0,0,0,0,1435,0,No
18,1,19,0,0,6,0,0,0,0,0,0,0,1435,0,No
3,1,3,0,0,1,0,0,0,0,0,0,0,463,0,No
2,2,2,0,0,4,0,0,0,0,0,0,0,1435,0,No
18,0,18,0,0,4,0,0,0,0,0,0,0,996,0,No
2,0,2,0,0,4,0,0,0,0,0,0,0,1273,0,No
12,1,16,0,0,6,0,0,0,0,0,0,0,1273,0,No
1,0,1,0,0,5,0,0,0,0,0,0,0,1435,0,No
3,1,3,0,0,4,0,0,0,0,0,0,0,1435,0,No
2,0,2,0,0,5,0,0,0,0,0,0,0,1435,0,No
4,1,4,0,0,4,0,0,0,0,0,0,0,996,0,No
20,2,21,0,0,4,0,0,0,0,0,0,0,898,0,No
22,1,26,0,0,5,0,0,0,0,0,0,0,1396,0,No
7,4,10,0,2,3,0,0,0,0,0,0,0,749,0,No
1,0,1,0,0,4,0,0,0,0,0,0,0,1396,0,No
0,0,0,0,1,2,0,0,0,0,0,0,0,416,0,No
48,1,52,0,0,6,0,0,0,0,0,0,0,965,0,No
0,0,0,0,0,4,0,0,0,0,0,0,0,1396,0,No
0,0,0,0,0,4,0,0,0,0,0,0,0,1396,0,No
10,2,11,0,0,8,0,0,0,0,0,0,0,1396,0,No
2,0,9,0,0,4,0,0,0,0,0,0,0,798,0,No
1,0,1,0,0,4,0,0,0,0,0,0,0,1396,0,No
0,0,0,0,0,4,0,0,0,0,0,0,0,1396,0,No
0,0,0,0,0,4,0,0,0,0,0,0,0,996,0,No
0,0,0,0,0,4,0,0,0,0,0,0,0,1396,0,No
10,11,54,0,1,6,0,0,0,0,0,0,0,878,0,No
17,10,34,0,2,4,0,0,0,0,0,0,0,447,0,No
7,1,14,0,2,6,0,0,0,0,0,0,0,1380,0,No
8,1,8,0,0,5,0,0,0,0,0,0,0,1380,0,No
8,14,18,0,0,6,0,0,0,0,0,0,0,1396,0,No
13,31,14,0,2,7,0,0,0,0,0,0,0,1396,0,No
3,0,3,0,0,2,0,0,0,0,0,0,0,597,0,No
0,0,0,0,0,2,0,0,0,0,0,0,0,328,0,No
0,0,0,0,0,4,0,0,0,0,0,0,0,1396,0,No
6,1,10,0,0,4,0,0,0,0,0,0,0,777,0,No
2,0,2,0,0,5,0,0,0,0,0,0,0,996,0,No
1,6,3,0,1,4,0,0,0,0,0,0,0,1065,0,No
2,0,3,0,0,3,0,0,0,0,0,0,0,1435,0,No
2,0,7,0,1,5,0,0,0,0,0,0,0,1115,0,No
7,0,7,0,0,3,0,0,0,0,0,0,0,1435,0,No
2,0,8,0,0,6,0,0,0,0,0,0,0,1224,0,No
2,0,4,0,0,1,0,0,0,0,0,0,0,434,0,No
4,8,4,0,0,4,0,0,0,0,0,0,0,1396,0,Yes
2,2,2,0,0,5,0,0,0,0,0,0,0,1065,0,No
1,1,1,0,1,5,0,0,0,0,0,0,0,1396,0,No
4,2,4,0,0,3,0,0,0,0,0,0,0,394,0,No
3,5,13,0,0,2,0,0,0,0,0,0,0,400,0,No
2,8,5,0,5,5,0,0,0,0,0,0,0,790,0,No
0,0,0,0,1,3,0,0,0,0,0,0,0,1396,0,No
0,0,0,0,0,3,0,0,0,0,0,0,0,996,0,No
0,0,0,0,0,1,0,0,0,0,0,0,0,265,0,No
0,0,0,0,0,3,0,0,0,0,0,0,0,1396,0,No
0,3,0,0,1,6,0,0,0,0,0,0,0,885,0,No
0,2,0,0,1,4,0,0,0,0,0,0,0,1065,0,No
3,3,3,0,0,4,0,0,0,0,0,0,0,777,0,No
1,2,1,0,0,5,0,0,0,0,0,0,0,1065,0,No
1,2,1,0,0,6,0,0,0,0,0,0,0,995,0,No
1,5,2,0,1,6,0,0,0,0,0,0,0,995,0,No
11,12,16,0,3,7,0,0,0,0,0,0,0,1396,0,No
2,2,2,0,0,5,0,0,0,0,0,0,0,1065,0,No
2,1,2,0,0,5,0,0,0,0,0,0,0,1065,0,No
1,2,1,0,0,6,0,0,0,0,0,0,0,1396,0,No
12,15,51,0,1,3,0,0,0,0,0,0,0,476,0,Yes
0,3,0,0,0,2,0,0,0,0,0,0,0,328,0,Yes
0,3,0,0,0,5,0,0,0,0,0,0,0,790,0,No
9,8,13,0,2,6,0,0,0,0,0,0,0,1063,0,No
2,0,2,0,0,4,0,0,0,0,0,0,0,1396,0,No
11,13,29,0,3,5,0,0,0,0,0,0,0,980,0,Yes
19,10,36,0,2,3,0,0,0,0,0,0,0,528,0,Yes
3,6,4,0,2,5,0,0,0,0,0,0,0,528,0,No
10,1,14,0,2,2,0,0,0,0,0,0,0,156,0,No
1,5,2,0,1,6,0,0,0,0,0,0,0,892,0,Yes
10,11,24,0,2,6,0,0,0,0,0,0,0,1063,0,No
7,6,7,0,1,6,0,0,0,0,0,0,0,1435,0,No
3,2,3,0,2,6,0,0,0,0,0,0,0,895,0,No
2,2,2,0,1,5,0,0,0,0,0,0,0,1192,0,No
1,1,1,0,0,5,0,0,0,0,0,0,0,1435,0,No
6,2,6,0,0,6,0,0,0,0,0,0,0,1344,0,No
2,0,2,0,0,4,0,0,0,0,0,0,0,1396,0,No
8,7,11,0,1,6,0,0,0,0,0,0,0,1344,0,No
6,5,6,0,1,6,0,0,0,0,0,0,0,885,0,No
11,5,12,0,1,6,0,0,0,0,0,0,0,777,0,No
7,7,10,0,0,6,0,0,0,0,0,0,0,1365,0,No
11,10,11,0,0,7,0,0,0,0,0,0,0,1365,0,Yes
19,11,32,0,1,7,0,0,0,0,0,0,0,1435,0,Yes
17,13,23,0,0,8,0,0,0,0,0,0,0,1260,0,No
5,5,5,0,0,8,0,0,0,0,0,0,0,878,0,No
14,13,16,0,1,7,0,0,0,0,0,0,0,1386,0,Yes
2,4,2,0,0,6,0,0,0,0,0,0,0,1192,0,No
4,0,4,0,0,1,0,0,0,0,0,0,0,777,0,No
2,1,3,0,1,1,0,0,0,0,0,0,0,416,0,No
2,1,3,0,1,3,0,0,0,0,0,0,0,1115,0,No
2,0,2,0,1,3,0,0,0,0,0,0,0,1115,0,No
3,1,4,0,0,1,0,0,0,0,0,0,0,394,0,No
1,2,10,0,1,4,0,0,0,0,0,0,0,882,0,No
0,0,0,0,0,4,0,0,0,0,0,0,0,1396,0,No
0,0,0,0,0,4,0,0,0,0,0,0,0,1396,0,No
3,0,3,0,0,5,0,0,0,0,0,0,0,885,0,No
1,0,2,0,1,4,0,0,0,0,0,0,0,1396,0,No
1,0,2,0,1,5,0,0,0,0,0,0,0,885,0,No
1,1,2,0,0,4,0,0,0,0,0,0,0,885,0,No
1,2,3,0,0,4,0,0,0,0,0,0,0,885,0,No
1,0,1,0,0,4,0,0,0,0,0,0,0,1396,0,No
22,3,53,0,2,4,0,0,0,0,0,0,0,804,0,No
2,0,2,0,0,3,0,0,0,0,0,0,0,1154,0,No
1,1,1,0,0,4,0,0,0,0,0,0,0,1344,0,No
3,1,3,0,1,5,0,0,0,0,0,0,0,952,0,No
2,1,3,0,0,4,0,0,0,0,0,0,0,1344,0,No
1,0,1,0,0,4,0,0,0,0,0,0,0,1396,0,No
0,0,0,0,0,3,0,0,0,0,0,0,0,1396,0,No
8,1,14,0,0,6,0,0,0,0,0,0,0,952,0,No
1,0,1,0,2,1,0,0,0,0,0,0,0,426,0,No
1,0,1,0,0,5,0,0,0,0,0,0,0,996,0,No
6,4,7,0,0,4,0,0,0,0,0,0,0,881,0,No
1,1,1,0,0,4,0,0,0,0,0,0,0,996,0,No
2,0,2,0,0,3,0,0,0,0,0,0,0,387,0,No
1,4,9,0,0,5,0,0,0,0,0,0,0,798,0,No
2,2,3,0,1,6,0,0,0,0,0,0,0,1051,0,No
2,1,2,0,1,5,0,0,0,0,0,0,0,996,0,No
13,3,18,0,0,6,0,0,0,0,0,0,0,1389,0,No
2,0,2,0,0,3,0,0,0,0,0,0,0,1396,0,No
25,0,42,0,1,4,0,0,0,0,0,0,0,1389,0,No
6,1,6,2,1,6,1,1,0,0,1,9,15,1409,0,No
8,0,13,0,0,5,0,0,0,0,0,0,0,790,0,No
17,2,24,0,0,5,0,0,0,0,0,0,0,1380,0,No
8,0,10,0,0,5,0,0,0,0,0,0,0,1070,0,No
0,1,0,0,0,5,0,0,0,0,0,0,0,1389,0,No
4,1,4,0,0,4,0,0,0,0,0,0,0,1424,0,No
23,5,31,0,1,5,0,0,0,0,0,0,0,892,0,No
16,1,17,0,0,5,0,0,0,0,0,0,0,885,0,No
0,1,0,0,0,4,0,0,0,0,0,0,0,1389,0,No
6,4,6,0,2,5,0,0,0,0,0,0,0,965,0,No
18,5,18,0,0,5,0,0,0,0,0,0,0,1273,0,No
6,1,8,0,0,4,0,0,0,0,0,0,0,790,0,No
5,2,7,0,0,4,0,0,0,0,0,0,0,790,0,No
8,1,8,0,0,5,0,0,0,0,0,0,0,996,0,No
0,1,0,0,0,5,0,0,0,0,0,0,0,1389,0,No
19,4,21,0,0,7,0,0,0,0,0,0,0,996,0,Yes
4,1,4,0,1,3,0,0,0,0,0,0,0,1435,0,No
6,2,6,0,0,4,0,0,0,0,0,0,0,1424,0,No
5,0,10,0,0,4,0,0,0,0,0,0,0,1273,0,No
4,0,4,0,0,3,0,0,0,0,0,0,0,1273,0,No
8,4,11,0,0,4,0,0,0,0,0,0,0,882,0,No
11,4,19,0,0,5,0,0,0,0,0,0,0,1389,0,Yes
5,3,7,0,0,5,0,0,0,0,0,0,0,1231,0,No
3,2,4,0,0,5,0,0,0,0,0,0,0,1435,0,No
4,3,6,0,0,5,0,0,0,0,0,0,0,1389,0,No
0,1,0,0,0,4,0,0,0,0,0,0,0,1389,0,No
0,1,0,0,0,4,0,0,0,0,0,0,0,1389,0,No
5,3,7,0,0,6,0,0,0,0,0,0,0,1389,0,Yes
0,1,0,0,0,4,0,0,0,0,0,0,0,1389,0,No
24,7,36,0,0,6,0,0,0,0,0,0,0,1359,0,No
0,0,0,0,0,3,0,0,0,0,0,0,0,1396,0,No
11,4,19,0,0,5,0,0,0,0,0,0,0,1389,0,Yes
5,3,7,0,0,5,0,0,0,0,0,0,0,1231,0,No
3,2,4,0,0,5,0,0,0,0,0,0,0,1435,0,No
4,3,6,0,0,5,0,0,0,0,0,0,0,1389,0,No
0,1,0,0,0,4,0,0,0,0,0,0,0,1389,0,No
3,2,5,0,0,5,0,0,0,0,0,0,0,1435,0,No
0,1,0,0,0,4,0,0,0,0,0,0,0,1389,0,No
5,3,8,0,0,6,0,0,0,0,0,0,0,1389,0,No
0,1,0,0,0,4,0,0,0,0,0,0,0,1389,0,No
45,13,84,0,0,5,0,0,0,0,0,0,0,1389,0,No
11,4,19,0,0,5,0,0,0,0,0,0,0,1389,0,Yes
5,3,7,0,0,5,0,0,0,0,0,0,0,1231,0,No
3,2,4,0,0,5,0,0,0,0,0,0,0,1435,0,No
4,3,6,0,0,5,0,0,0,0,0,0,0,1389,0,No
0,1,0,0,1,4,0,0,0,0,0,0,0,1389,0,No
3,2,5,0,0,5,0,0,0,0,0,0,0,1435,0,No
0,1,0,0,1,4,0,0,0,0,0,0,0,1389,0,No
5,3,8,0,0,6,0,0,0,0,0,0,0,1389,0,No
0,1,0,0,1,4,0,0,0,0,0,0,0,1389,0,No
5,2,5,0,0,4,0,0,0,0,0,0,0,1435,0,No
5,2,5,0,0,4,0,0,0,0,0,0,0,1435,0,No
4,5,4,0,0,6,0,0,0,0,0,0,0,1435,0,No
4,3,4,0,0,6,0,0,0,0,0,0,0,1435,0,No
5,2,5,0,0,4,0,0,0,0,0,0,0,1435,0,No
4,2,4,0,0,4,0,0,0,0,0,0,0,1435,0,No
2,1,2,0,0,5,0,0,0,0,0,0,0,1396,0,No
4,1,4,0,0,3,0,0,0,0,0,0,0,1396,0,No
5,2,5,0,0,4,0,0,0,0,0,0,0,1435,0,No
5,4,5,0,0,4,0,0,0,0,0,0,0,1435,0,No
6,3,6,0,0,4,0,0,0,0,0,0,0,1435,0,No
5,3,5,0,0,4,0,0,0,0,0,0,0,1435,0,No
5,4,5,0,0,4,0,0,0,0,0,0,0,1435,0,No
1,0,1,0,0,4,0,0,0,0,0,0,0,1396,0,No
0,0,0,0,0,5,0,0,0,0,0,0,0,1396,0,No
4,2,4,0,0,4,0,0,0,0,0,0,0,996,0,No
8,5,8,0,1,4,0,0,0,0,0,0,0,1396,0,No
7,2,7,0,0,4,0,0,0,0,0,0,0,1435,0,No
7,3,7,0,0,4,0,0,0,0,0,0,0,1435,0,No
8,6,8,0,0,4,0,0,0,0,0,0,0,1435,0,No
19,10,19,0,0,6,0,0,0,0,0,0,0,1435,0,No
5,4,5,0,0,4,0,0,0,0,0,0,0,1435,0,No
10,3,10,0,0,4,0,0,0,0,0,0,0,1435,0,No
8,3,8,0,0,4,0,0,0,0,0,0,0,1435,0,No
13,5,13,0,0,6,0,0,0,0,0,0,0,1435,0,No
4,2,4,0,0,4,0,0,0,0,0,0,0,996,0,No
5,2,5,0,0,4,0,0,0,0,0,0,0,1435,0,No
5,4,5,0,0,4,0,0,0,0,0,0,0,1435,0,No
8,2,12,0,0,4,0,0,0,0,0,0,0,1435,0,No
5,2,7,0,0,4,0,0,0,0,0,0,0,1424,0,No
5,2,7,0,0,4,0,0,0,0,0,0,0,1424,0,Yes
4,6,9,0,0,5,0,0,0,0,0,0,0,1424,0,No
5,2,7,0,0,4,0,0,0,0,0,0,0,1424,0,No
5,7,8,0,0,4,0,0,0,0,0,0,0,1424,0,No
6,5,9,0,0,4,0,0,0,0,0,0,0,1424,0,No
5,4,8,0,0,4,0,0,0,0,0,0,0,798,0,No
5,6,7,0,0,5,0,0,0,0,0,0,0,1359,0,No
4,3,4,0,0,4,0,0,0,0,0,0,0,892,0,No
8,6,14,0,0,4,0,0,0,0,0,0,0,965,0,No
7,3,10,0,0,4,0,0,0,0,0,0,0,790,0,No
8,4,12,0,0,4,0,0,0,0,0,0,0,790,0,No
9,16,32,0,0,7,0,0,0,0,0,0,0,1380,0,No
25,17,60,0,0,7,0,0,0,0,0,0,0,1424,0,No
5,7,8,0,0,4,0,0,0,0,0,0,0,1424,0,No
11,6,21,0,0,5,0,0,0,0,0,0,0,1424,0,No
9,7,14,0,0,4,0,0,0,0,0,0,0,1424,0,No
15,11,32,0,0,9,0,0,0,0,0,0,0,1179,0,No
4,3,4,0,0,4,0,0,0,0,0,0,0,892,0,No
5,2,7,0,0,4,0,0,0,0,0,0,0,1424,0,No
5,7,8,0,0,4,0,0,0,0,0,0,0,1424,0,No
2,2,2,0,0,4,0,0,0,0,0,0,0,1406,0,No
1,2,2,0,0,5,0,0,0,0,0,0,0,1435,0,No
1,3,6,0,0,6,0,0,0,0,0,0,0,1435,0,No
1,2,2,0,1,5,0,0,0,0,0,0,0,1406,0,No
0,1,0,0,0,5,0,0,0,0,0,0,0,1435,0,No
0,0,0,0,0,3,0,0,0,0,0,0,0,1435,0,No
1,1,1,0,0,3,0,0,0,0,0,0,0,1406,0,No
2,1,2,0,3,4,0,0,0,0,0,0,0,1435,0,No
0,0,0,0,0,4,0,0,0,0,0,0,0,1231,0,No
0,0,0,0,0,4,0,0,0,0,0,0,0,1231,0,No
0,0,0,0,0,4,0,0,0,0,0,0,0,1231,0,No
0,0,0,0,0,4,0,0,0,0,0,0,0,1231,0,No
1,0,2,0,0,4,0,0,0,0,0,0,0,1231,0,No
0,0,0,0,0,4,0,0,0,0,0,0,0,1231,0,No
4,1,7,0,2,5,0,0,0,0,0,0,0,1231,0,No
0,0,0,0,0,4,0,0,0,0,0,0,0,996,0,No
1,2,7,0,2,5,0,0,0,0,0,0,0,892,0,No
0,0,0,0,0,4,0,0,0,0,0,0,0,1231,0,No
0,0,0,0,0,4,0,0,0,0,0,0,0,996,0,No
0,0,0,0,0,4,0,0,0,0,0,0,0,996,0,No
0,0,0,0,0,4,0,0,0,0,0,0,0,996,0,No
0,0,0,0,0,4,0,0,0,0,0,0,0,1231,0,No
0,0,0,0,1,4,0,0,0,0,0,0,0,1231,0,No
2,13,17,0,1,1,0,0,0,0,0,0,0,202,0,No
1,3,5,0,2,5,0,0,0,0,0,0,0,1231,0,No
0,0,0,0,0,4,0,0,0,0,0,0,0,996,0,No
1,3,7,0,2,9,0,0,0,0,0,0,0,990,0,No
0,0,0,0,1,4,0,0,0,0,0,0,0,1231,0,No
1,2,2,0,2,3,0,0,0,0,0,0,0,532,0,No
0,0,0,0,0,4,0,0,0,0,0,0,0,1231,0,No
1,2,3,0,2,3,0,0,0,0,0,0,0,532,0,No
0,0,0,0,0,5,0,0,0,0,0,0,0,1231,0,No
3,13,23,0,2,7,0,0,0,0,0,0,0,902,0,No
1,3,24,0,2,7,0,0,0,0,0,0,0,895,0,No
0,0,0,0,0,4,0,0,0,0,0,0,0,1396,0,No
12,2,58,0,0,7,0,0,0,0,0,0,0,952,0,No
0,0,0,0,0,4,0,0,0,0,0,0,0,1396,0,No
0,0,0,0,0,5,0,0,0,0,0,0,0,1396,0,No
1,1,1,0,1,6,0,0,0,0,0,0,0,895,0,No
17,4,17,0,0,3,0,0,0,0,0,0,0,448,0,No
4,3,4,0,0,4,0,0,0,0,0,0,0,479,0,No
2,2,2,0,0,5,0,0,0,0,0,0,0,1396,0,No
16,1,42,0,1,5,0,0,0,0,0,0,0,1350,0,No
1,0,1,0,1,4,0,0,0,0,0,0,0,1435,0,No
3,3,3,0,0,4,0,0,0,0,0,0,0,787,0,No
4,2,4,0,1,2,0,0,0,0,0,0,0,535,0,No
0,0,0,0,0,6,0,0,0,0,0,0,0,1396,0,No
4,5,10,0,0,5,0,0,0,0,0,0,0,513,0,No
2,7,11,2,3,4,1,1,0,0,1,9,15,491,0,No
0,0,0,0,0,3,0,0,0,0,0,0,0,1396,0,No
1,0,1,0,2,3,0,0,0,0,0,0,0,1396,0,No
1,0,1,0,1,3,0,0,0,0,0,0,0,1396,0,No
0,0,0,0,0,3,0,0,0,0,0,0,0,1396,0,No
4,1,5,0,1,4,0,0,0,0,0,0,0,996,0,No
0,0,0,0,0,4,0,0,0,0,0,0,0,996,0,No
2,1,2,0,0,5,0,0,0,0,0,0,0,790,0,No
0,1,0,0,0,4,0,0,0,0,0,0,0,996,0,No
2,2,11,0,1,3,0,0,0,0,0,0,0,765,0,No
10,0,10,0,0,1,0,0,0,0,0,0,0,161,0,No
3,4,4,0,1,5,0,0,0,0,0,0,0,1214,0,No
1,0,1,0,0,4,0,0,0,0,0,0,0,1435,0,No
0,0,0,0,1,2,0,0,0,0,0,0,0,156,0,No
9,9,21,0,1,7,0,0,0,0,0,0,0,882,0,No
2,2,2,0,0,4,0,0,0,0,0,0,0,1396,0,No
2,2,2,0,0,4,0,0,0,0,0,0,0,1360,0,No
4,9,31,0,0,6,0,0,0,0,0,0,0,1375,0,No
2,2,2,0,0,5,0,0,0,0,0,0,0,1396,0,No
4,6,7,2,2,4,1,1,0,0,1,9,15,1387,0,No
3,2,3,0,1,5,0,0,0,0,0,0,0,892,0,No
3,19,35,0,1,5,0,0,0,0,0,0,0,951,0,No
13,23,57,2,3,6,1,1,0,0,1,9,15,1373,0,No
4,10,9,2,2,5,1,1,0,0,1,9,15,1387,0,No
8,0,10,0,0,4,0,0,0,0,0,0,0,1402,0,No
6,8,10,0,0,6,0,0,0,0,0,0,0,882,0,No
4,2,4,0,0,5,0,0,0,0,0,0,0,1070,0,No
2,2,4,0,0,4,0,0,0,0,0,0,0,584,0,No
1,1,3,0,0,1,0,0,0,0,0,0,0,373,0,No
1,7,9,0,2,4,0,0,0,0,0,0,0,1211,0,No
10,8,10,0,1,4,0,0,0,0,0,0,0,447,0,No
14,10,16,0,0,5,0,0,0,0,0,0,0,446,0,No
1,0,1,0,0,6,0,0,0,0,0,0,0,1435,0,No
32,0,32,0,0,3,0,0,0,0,0,0,0,447,0,No
2,4,2,0,0,5,0,0,0,0,0,0,0,1435,0,No
6,4,6,0,0,2,0,0,0,0,0,0,0,441,0,No
8,10,22,0,1,4,0,0,0,0,0,0,0,442,0,No
14,9,15,0,0,3,0,0,0,0,0,0,0,441,0,No
11,10,11,0,0,5,0,0,0,0,0,0,0,446,0,No
14,7,14,0,1,3,0,0,0,0,0,0,0,440,0,No
6,11,21,0,0,4,0,0,0,0,0,0,0,443,0,No
16,17,24,0,0,5,0,0,0,0,0,0,0,436,0,No
7,5,10,0,0,2,0,0,0,0,0,0,0,441,0,No
26,10,26,0,2,5,0,0,0,0,0,0,0,437,0,No
5,4,5,0,1,6,0,0,0,0,0,0,0,1435,0,No
1,1,1,0,1,6,0,0,0,0,0,0,0,1396,0,No
15,3,20,0,0,6,0,0,0,0,0,0,0,888,0,No
7,25,29,0,3,5,0,0,0,0,0,0,0,472,0,Yes
3,0,3,0,0,3,0,0,0,0,0,0,0,1435,0,No
13,1,16,0,2,1,0,0,0,0,0,0,0,406,0,No
0,0,0,0,0,5,0,0,0,0,0,0,0,1396,0,No
4,1,16,0,1,4,0,0,0,0,0,0,0,584,0,No
4,10,20,0,0,4,0,0,0,0,0,0,0,996,0,No
1,0,5,0,1,1,0,0,0,0,0,0,0,379,0,No
5,1,14,0,1,2,0,0,0,0,0,0,0,421,0,No
6,1,6,0,1,3,0,0,0,0,0,0,0,421,0,No
7,0,8,0,0,4,0,0,0,0,0,0,0,1435,0,No
2,1,4,0,0,4,0,0,0,0,0,0,0,867,0,No
2,0,4,88,0,4,43,43,-2,0,1,9,15,1435,0,No
2,0,2,18,0,5,8,8,-2,0,1,9,15,1396,0,No
14,0,18,0,1,5,0,0,0,0,0,0,0,819,0,No
7,3,7,0,2,5,0,0,0,0,0,0,0,513,0,No
0,1,0,0,1,5,0,0,0,0,0,0,0,996,0,No
3,0,3,0,1,6,0,0,0,0,0,0,0,1396,0,No
9,1,9,0,1,4,0,0,0,0,0,0,0,885,0,No
0,0,0,0,0,3,0,0,0,0,0,0,0,1396,0,No
5,9,5,0,0,4,0,0,0,0,0,0,0,513,0,No
10,11,10,0,1,4,0,0,0,0,0,0,0,513,0,No
4,7,4,0,0,3,0,0,0,0,0,0,0,513,0,No
13,9,13,0,1,8,0,0,0,0,0,0,0,903,0,No
14,11,18,0,6,7,0,0,0,0,0,0,0,920,0,No
1,1,1,0,0,3,0,0,0,0,0,0,0,996,0,No
1,0,1,0,0,3,0,0,0,0,0,0,0,996,0,No
4,0,4,0,0,3,0,0,0,0,0,0,0,996,0,No
2,3,2,0,0,3,0,0,0,0,0,0,0,909,0,No
1,1,1,0,1,4,0,0,0,0,0,0,0,996,0,No
1,3,1,0,0,5,0,0,0,0,0,0,0,909,0,No
1,2,2,0,1,4,0,0,0,0,0,0,0,909,0,No
1,2,1,0,0,3,0,0,0,0,0,0,0,909,0,No
1,4,1,0,0,5,0,0,0,0,0,0,0,909,0,No
1,0,2,0,0,4,0,0,0,0,0,0,0,1518,0,No
3,0,3,0,1,4,0,0,0,0,0,0,0,894,0,No
8,6,9,0,2,2,0,0,0,0,0,0,0,545,0,No
13,8,17,0,0,3,0,0,0,0,0,0,0,545,0,No
2,3,2,0,0,4,0,0,0,0,0,0,0,1518,0,No
5,6,15,0,1,3,0,0,0,0,0,0,0,545,0,No
5,3,5,0,0,3,0,0,0,0,0,0,0,540,0,No
9,8,24,0,1,4,0,0,0,0,0,0,0,541,0,No
12,6,13,0,2,3,0,0,0,0,0,0,0,544,0,No
10,9,12,0,1,3,0,0,0,0,0,0,0,544,0,No
13,5,13,0,1,2,0,0,0,0,0,0,0,546,0,No
6,8,13,0,1,3,0,0,0,0,0,0,0,540,0,No
1,0,1,0,0,4,0,0,0,0,0,0,0,1518,0,No
4,2,8,0,1,5,0,0,0,0,0,0,0,1518,0,No
6,3,9,0,0,3,0,0,0,0,0,0,0,539,0,No
25,8,25,0,2,4,0,0,0,0,0,0,0,546,0,No
5,3,5,0,1,1,0,0,0,0,0,0,0,502,0,No
2,3,2,0,1,6,0,0,0,0,0,0,0,1518,0,No
3,0,3,0,0,4,0,0,0,0,0,0,0,1518,0,No
0,0,0,0,0,5,0,0,0,0,0,0,0,1079,0,No
0,1,0,0,0,4,0,0,0,0,0,0,0,1079,0,No
0,0,0,0,0,4,0,0,0,0,0,0,0,1079,0,No
35,1,42,0,0,5,0,0,0,0,0,0,0,1434,0,No
11,1,12,0,0,4,0,0,0,0,0,0,0,1434,0,No
2,1,2,0,0,4,0,0,0,0,0,0,0,1518,0,No
25,0,38,0,0,4,0,0,0,0,0,0,0,1454,0,No
2,1,2,0,0,5,0,0,0,0,0,0,0,1079,0,No
1,0,1,0,0,4,0,0,0,0,0,0,0,873,0,No
10,3,10,0,0,5,0,0,0,0,0,0,0,873,0,No
12,1,14,0,0,3,0,0,0,0,0,0,0,848,0,No
10,3,10,0,0,5,0,0,0,0,0,0,0,873,0,No
7,1,11,0,0,4,0,0,0,0,0,0,0,1365,0,No
3,1,3,0,0,4,0,0,0,0,0,0,0,1475,0,No
3,1,3,0,0,5,0,0,0,0,0,0,0,1518,0,No
1,0,1,0,0,4,0,0,0,0,0,0,0,1479,0,No
8,3,8,0,1,3,0,0,0,0,0,0,0,545,0,No
13,7,13,0,1,3,0,0,0,0,0,0,0,545,0,No
2,1,2,0,0,4,0,0,0,0,0,0,0,1518,0,No
0,0,0,0,0,5,0,0,0,0,0,0,0,1479,0,No
5,1,5,0,0,4,0,0,0,0,0,0,0,540,0,No
7,3,7,0,1,3,0,0,0,0,0,0,0,541,0,No
12,3,12,0,1,3,0,0,0,0,0,0,0,544,0,No
2,0,2,0,0,5,0,0,0,0,0,0,0,1518,0,No
10,6,10,0,0,3,0,0,0,0,0,0,0,544,0,No
13,3,13,0,0,3,0,0,0,0,0,0,0,546,0,No
5,3,5,0,0,3,0,0,0,0,0,0,0,540,0,No
14,8,14,0,0,4,0,0,0,0,0,0,0,541,0,No
25,6,25,0,1,5,0,0,0,0,0,0,0,546,0,No
5,2,5,0,1,5,0,0,0,0,0,0,0,1518,0,No
2,2,2,0,1,4,0,0,0,0,0,0,0,545,0,No
10,1,14,0,0,4,0,0,0,0,0,0,0,1356,0,No
2,1,2,0,0,4,0,0,0,0,0,0,0,1518,0,No
2,2,2,0,0,4,0,0,0,0,0,0,0,1518,0,No
6,1,8,0,0,2,0,0,0,0,0,0,0,477,0,No
4,1,4,0,0,4,0,0,0,0,0,0,0,1518,0,No
14,2,14,0,0,4,0,0,0,0,0,0,0,1456,0,No
5,1,7,0,1,5,0,0,0,0,0,0,0,894,0,No
3,1,3,0,0,5,0,0,0,0,0,0,0,1518,0,No
2,0,2,0,0,4,0,0,0,0,0,0,0,1475,0,No
3,1,3,0,0,1,0,0,0,0,0,0,0,546,0,No
8,2,10,0,2,2,0,0,0,0,0,0,0,239,0,No
3,1,3,0,0,4,0,0,0,0,0,0,0,1518,0,No
4,2,4,0,0,4,0,0,0,0,0,0,0,1518,0,No
3,1,3,0,0,4,0,0,0,0,0,0,0,1518,0,No
16,3,16,0,0,5,0,0,0,0,0,0,0,1463,0,No
24,4,27,0,0,6,0,0,0,0,0,0,0,975,0,No
2,2,2,0,0,4,0,0,0,0,0,0,0,1518,0,No
8,2,8,0,0,4,0,0,0,0,0,0,0,1518,0,No
3,1,3,0,0,1,0,0,0,0,0,0,0,546,0,No
10,2,10,0,0,5,0,0,0,0,0,0,0,870,0,No
18,3,18,0,0,4,0,0,0,0,0,0,0,1356,0,No
2,0,2,0,0,4,0,0,0,0,0,0,0,1079,0,No
24,4,32,0,0,5,0,0,0,0,0,0,0,873,0,No
42,4,42,0,1,4,0,0,0,0,0,0,0,1454,0,No
12,0,16,0,0,5,0,0,0,0,0,0,0,1518,0,No
18,1,19,0,0,6,0,0,0,0,0,0,0,1518,0,No
3,1,3,0,0,1,0,0,0,0,0,0,0,546,0,No
2,2,2,0,0,4,0,0,0,0,0,0,0,1518,0,No
18,0,18,0,0,4,0,0,0,0,0,0,0,1079,0,No
2,0,2,0,0,4,0,0,0,0,0,0,0,1356,0,No
12,1,16,0,0,6,0,0,0,0,0,0,0,1356,0,No
1,0,1,0,0,5,0,0,0,0,0,0,0,1518,0,No
3,1,3,0,0,4,0,0,0,0,0,0,0,1518,0,No
2,0,2,0,0,5,0,0,0,0,0,0,0,1518,0,No
4,1,4,0,0,4,0,0,0,0,0,0,0,1079,0,No
20,2,21,0,0,4,0,0,0,0,0,0,0,981,0,No
22,1,26,0,0,5,0,0,0,0,0,0,0,1479,0,No
7,4,10,0,2,3,0,0,0,0,0,0,0,832,0,No
1,0,1,0,0,4,0,0,0,0,0,0,0,1479,0,No
0,0,0,0,1,2,0,0,0,0,0,0,0,499,0,No
48,1,52,0,0,6,0,0,0,0,0,0,0,1048,0,No
0,0,0,0,0,4,0,0,0,0,0,0,0,1479,0,No
0,0,0,0,0,4,0,0,0,0,0,0,0,1479,0,No
10,2,11,0,0,8,0,0,0,0,0,0,0,1479,0,No
2,0,9,0,0,4,0,0,0,0,0,0,0,881,0,No
1,0,1,0,0,4,0,0,0,0,0,0,0,1479,0,No
0,0,0,0,0,4,0,0,0,0,0,0,0,1479,0,No
0,0,0,0,0,4,0,0,0,0,0,0,0,1079,0,No
0,0,0,0,0,4,0,0,0,0,0,0,0,1479,0,No
10,11,54,0,1,6,0,0,0,0,0,0,0,961,0,No
17,10,34,0,2,4,0,0,0,0,0,0,0,530,0,No
7,1,14,0,2,6,0,0,0,0,0,0,0,1463,0,No
8,1,8,0,0,5,0,0,0,0,0,0,0,1463,0,No
8,14,18,0,0,6,0,0,0,0,0,0,0,1479,0,No
13,31,14,0,2,7,0,0,0,0,0,0,0,1479,0,No
3,0,3,0,0,2,0,0,0,0,0,0,0,680,0,No
0,0,0,0,0,2,0,0,0,0,0,0,0,411,0,No
0,0,0,0,0,4,0,0,0,0,0,0,0,1479,0,No
6,1,10,0,0,4,0,0,0,0,0,0,0,860,0,No
2,0,2,0,0,5,0,0,0,0,0,0,0,1079,0,No
1,6,3,0,1,4,0,0,0,0,0,0,0,1148,0,No
2,0,3,0,0,3,0,0,0,0,0,0,0,1518,0,No
2,0,7,0,1,5,0,0,0,0,0,0,0,1198,0,No
7,0,7,0,0,3,0,0,0,0,0,0,0,1518,0,No
2,0,8,0,0,6,0,0,0,0,0,0,0,1307,0,No
2,0,4,0,0,1,0,0,0,0,0,0,0,517,0,No
4,8,4,0,0,4,0,0,0,0,0,0,0,1479,0,No
2,2,2,0,0,5,0,0,0,0,0,0,0,1148,0,No
1,1,1,0,1,5,0,0,0,0,0,0,0,1479,0,No
4,2,4,0,0,3,0,0,0,0,0,0,0,477,0,No
3,5,13,0,0,2,0,0,0,0,0,0,0,483,0,No
2,8,5,0,5,5,0,0,0,0,0,0,0,873,0,No
0,0,0,0,1,3,0,0,0,0,0,0,0,1479,0,No
0,0,0,0,0,3,0,0,0,0,0,0,0,1079,0,No
0,0,0,0,0,1,0,0,0,0,0,0,0,348,0,No
0,0,0,0,0,3,0,0,0,0,0,0,0,1479,0,No
0,3,0,0,1,6,0,0,0,0,0,0,0,968,0,No
0,2,0,0,1,4,0,0,0,0,0,0,0,1148,0,No
3,3,3,0,0,4,0,0,0,0,0,0,0,860,0,No
1,2,1,0,0,5,0,0,0,0,0,0,0,1148,0,No
1,2,1,0,0,6,0,0,0,0,0,0,0,1078,0,No
1,5,2,0,1,6,0,0,0,0,0,0,0,1078,0,No
11,12,16,0,3,7,0,0,0,0,0,0,0,1479,0,No
2,2,2,0,0,5,0,0,0,0,0,0,0,1148,0,No
2,1,2,0,0,5,0,0,0,0,0,0,0,1148,0,No
1,2,1,0,0,6,0,0,0,0,0,0,0,1479,0,No
12,15,51,0,1,3,0,0,0,0,0,0,0,559,0,No
0,3,0,6,1,3,5,5,4,4,1,1,5,411,0,No
0,3,0,0,0,5,0,0,0,0,0,0,0,873,0,No
9,8,13,0,2,6,0,0,0,0,0,0,0,1146,0,No
2,0,2,0,0,4,0,0,0,0,0,0,0,1479,0,No
11,13,31,34,3,6,18,18,2,2,1,1,1,1063,0,No
3,6,4,0,2,5,0,0,0,0,0,0,0,611,0,No
10,1,14,0,2,2,0,0,0,0,0,0,0,239,0,No
1,5,2,0,1,6,0,0,0,0,0,0,0,975,0,No
10,11,24,0,2,6,0,0,0,0,0,0,0,1146,0,No
7,6,7,0,1,6,0,0,0,0,0,0,0,1518,0,No
3,2,3,0,2,6,0,0,0,0,0,0,0,978,0,No
2,2,2,0,1,5,0,0,0,0,0,0,0,1275,0,No
1,1,1,0,0,5,0,0,0,0,0,0,0,1518,0,No
6,2,6,0,0,6,0,0,0,0,0,0,0,1427,0,No
2,0,2,0,0,4,0,0,0,0,0,0,0,1479,0,No
8,7,11,0,1,6,0,0,0,0,0,0,0,1427,0,No
6,5,6,0,1,6,0,0,0,0,0,0,0,968,0,No
11,5,12,0,1,6,0,0,0,0,0,0,0,860,0,No
7,7,10,0,0,6,0,0,0,0,0,0,0,1448,0,No
11,10,11,0,0,7,0,0,0,0,0,0,0,1448,0,Yes
19,11,32,0,1,7,0,0,0,0,0,0,0,1518,0,No
17,13,23,0,0,8,0,0,0,0,0,0,0,1343,0,No
5,5,5,0,0,8,0,0,0,0,0,0,0,961,0,No
14,13,16,0,1,7,0,0,0,0,0,0,0,1469,0,Yes
2,4,2,0,0,6,0,0,0,0,0,0,0,1275,0,No
4,0,4,0,0,1,0,0,0,0,0,0,0,860,0,No
2,1,3,0,1,1,0,0,0,0,0,0,0,499,0,No
2,1,3,0,1,3,0,0,0,0,0,0,0,1198,0,No
2,0,2,0,1,3,0,0,0,0,0,0,0,1198,0,No
3,1,4,0,0,1,0,0,0,0,0,0,0,477,0,No
1,2,10,0,1,4,0,0,0,0,0,0,0,965,0,No
0,0,0,0,0,4,0,0,0,0,0,0,0,1479,0,No
0,0,0,0,0,4,0,0,0,0,0,0,0,1479,0,No
3,0,3,0,0,5,0,0,0,0,0,0,0,968,0,No
1,0,2,0,1,4,0,0,0,0,0,0,0,1479,0,No
1,0,2,0,1,5,0,0,0,0,0,0,0,968,0,No
1,1,2,0,0,4,0,0,0,0,0,0,0,968,0,No
1,2,3,0,0,4,0,0,0,0,0,0,0,968,0,No
1,0,1,0,0,4,0,0,0,0,0,0,0,1479,0,No
23,3,55,37,2,4,26,26,15,15,1,8,18,887,0,No
2,0,2,0,0,3,0,0,0,0,0,0,0,1237,0,No
1,1,1,0,0,4,0,0,0,0,0,0,0,1427,0,Yes
3,1,3,0,1,5,0,0,0,0,0,0,0,1035,0,No
2,1,3,0,0,4,0,0,0,0,0,0,0,1427,0,Yes
1,0,1,0,0,4,0,0,0,0,0,0,0,1479,0,No
0,0,0,0,0,3,0,0,0,0,0,0,0,1479,0,No
8,1,14,0,0,6,0,0,0,0,0,0,0,1035,0,No
1,0,1,0,2,1,0,0,0,0,0,0,0,509,0,No
1,0,1,0,0,5,0,0,0,0,0,0,0,1079,0,No
6,4,7,0,0,4,0,0,0,0,0,0,0,964,0,No
1,1,1,0,0,4,0,0,0,0,0,0,0,1079,0,No
2,0,2,0,0,3,0,0,0,0,0,0,0,470,0,No
1,4,9,0,0,5,0,0,0,0,0,0,0,881,0,No
2,2,3,0,1,6,0,0,0,0,0,0,0,1134,0,No
2,1,2,0,1,5,0,0,0,0,0,0,0,1079,0,No
13,3,18,0,0,6,0,0,0,0,0,0,0,1472,0,No
2,0,2,0,0,3,0,0,0,0,0,0,0,1479,0,No
25,0,42,0,1,4,0,0,0,0,0,0,0,1472,0,No
6,1,6,0,1,6,0,0,0,0,0,0,0,1492,0,No
8,0,13,0,0,5,0,0,0,0,0,0,0,873,0,No
17,2,24,0,0,5,0,0,0,0,0,0,0,1463,0,No
8,0,10,0,0,5,0,0,0,0,0,0,0,1153,0,No
0,1,0,0,0,5,0,0,0,0,0,0,0,1472,0,No
4,1,4,0,0,4,0,0,0,0,0,0,0,1507,0,No
23,5,31,0,1,5,0,0,0,0,0,0,0,975,0,No
16,1,17,0,0,5,0,0,0,0,0,0,0,968,0,No
0,1,0,0,0,4,0,0,0,0,0,0,0,1472,0,No
6,4,6,0,2,5,0,0,0,0,0,0,0,1048,0,No
18,5,18,0,0,5,0,0,0,0,0,0,0,1356,0,No
6,1,8,2,0,4,1,1,0,0,1,16,36,873,0,No
5,2,7,0,0,4,0,0,0,0,0,0,0,873,0,No
8,1,8,0,0,5,0,0,0,0,0,0,0,1079,0,No
0,1,0,0,0,5,0,0,0,0,0,0,0,1472,0,No
19,5,21,5,1,7,3,3,1,1,3,4,5,1079,0,No
4,1,4,0,1,3,0,0,0,0,0,0,0,1518,0,No
6,2,6,0,0,4,0,0,0,0,0,0,0,1507,0,No
5,0,10,0,0,4,0,0,0,0,0,0,0,1356,0,No
4,0,4,0,0,3,0,0,0,0,0,0,0,1356,0,No
8,4,11,0,0,4,0,0,0,0,0,0,0,965,0,No
11,4,19,0,0,5,0,0,0,0,0,0,0,1472,0,Yes
5,3,7,0,0,5,0,0,0,0,0,0,0,1314,0,No
3,2,4,0,0,5,0,0,0,0,0,0,0,1518,0,No
4,3,6,0,0,5,0,0,0,0,0,0,0,1472,0,No
0,1,0,0,0,4,0,0,0,0,0,0,0,1472,0,No
0,1,0,0,0,4,0,0,0,0,0,0,0,1472,0,No
5,3,7,0,0,6,0,0,0,0,0,0,0,1472,0,No
0,1,0,0,0,4,0,0,0,0,0,0,0,1472,0,No
24,7,36,0,0,6,0,0,0,0,0,0,0,1442,0,No
0,0,0,0,0,3,0,0,0,0,0,0,0,1479,0,No
11,4,19,0,0,5,0,0,0,0,0,0,0,1472,0,Yes
5,3,7,0,0,5,0,0,0,0,0,0,0,1314,0,No
3,2,4,0,0,5,0,0,0,0,0,0,0,1518,0,No
4,3,6,0,0,5,0,0,0,0,0,0,0,1472,0,No
0,1,0,0,0,4,0,0,0,0,0,0,0,1472,0,No
3,2,5,0,0,5,0,0,0,0,0,0,0,1518,0,No
0,1,0,0,0,4,0,0,0,0,0,0,0,1472,0,No
5,3,8,0,0,6,0,0,0,0,0,0,0,1472,0,No
0,1,0,0,0,4,0,0,0,0,0,0,0,1472,0,No
45,13,84,0,0,5,0,0,0,0,0,0,0,1472,0,Yes
11,4,19,0,0,5,0,0,0,0,0,0,0,1472,0,Yes
5,3,7,0,0,5,0,0,0,0,0,0,0,1314,0,No
3,2,4,0,0,5,0,0,0,0,0,0,0,1518,0,No
4,3,6,0,0,5,0,0,0,0,0,0,0,1472,0,No
0,1,0,0,1,4,0,0,0,0,0,0,0,1472,0,No
3,2,5,0,0,5,0,0,0,0,0,0,0,1518,0,No
0,1,0,0,1,4,0,0,0,0,0,0,0,1472,0,No
5,3,8,0,0,6,0,0,0,0,0,0,0,1472,0,No
0,1,0,0,1,4,0,0,0,0,0,0,0,1472,0,No
5,2,5,0,0,4,0,0,0,0,0,0,0,1518,0,No
5,2,5,0,0,4,0,0,0,0,0,0,0,1518,0,No
4,5,4,0,0,6,0,0,0,0,0,0,0,1518,0,No
4,3,4,0,0,6,0,0,0,0,0,0,0,1518,0,No
5,2,5,0,0,4,0,0,0,0,0,0,0,1518,0,No
4,2,4,0,0,4,0,0,0,0,0,0,0,1518,0,No
2,1,2,0,0,5,0,0,0,0,0,0,0,1479,0,No
4,1,4,0,0,3,0,0,0,0,0,0,0,1479,0,No
5,2,5,0,0,4,0,0,0,0,0,0,0,1518,0,No
5,4,5,0,0,4,0,0,0,0,0,0,0,1518,0,No
6,3,6,0,0,4,0,0,0,0,0,0,0,1518,0,No
5,3,5,0,0,4,0,0,0,0,0,0,0,1518,0,No
5,4,5,0,0,4,0,0,0,0,0,0,0,1518,0,No
1,0,1,0,0,4,0,0,0,0,0,0,0,1479,0,No
0,0,0,0,0,5,0,0,0,0,0,0,0,1479,0,No
4,2,4,0,0,4,0,0,0,0,0,0,0,1079,0,No
8,5,8,0,1,4,0,0,0,0,0,0,0,1479,0,No
7,2,7,0,0,4,0,0,0,0,0,0,0,1518,0,No
7,3,7,0,0,4,0,0,0,0,0,0,0,1518,0,No
8,6,8,0,0,4,0,0,0,0,0,0,0,1518,0,No
19,10,19,0,0,6,0,0,0,0,0,0,0,1518,0,No
5,4,5,0,0,4,0,0,0,0,0,0,0,1518,0,No
10,3,10,0,0,4,0,0,0,0,0,0,0,1518,0,No
8,3,8,0,0,4,0,0,0,0,0,0,0,1518,0,No
13,5,13,0,0,6,0,0,0,0,0,0,0,1518,0,No
4,2,4,0,0,4,0,0,0,0,0,0,0,1079,0,No
5,2,5,0,0,4,0,0,0,0,0,0,0,1518,0,No
5,4,5,0,0,4,0,0,0,0,0,0,0,1518,0,No
8,2,12,0,0,4,0,0,0,0,0,0,0,1518,0,No
5,2,7,0,0,4,0,0,0,0,0,0,0,1507,0,No
5,2,7,0,0,4,0,0,0,0,0,0,0,1507,0,Yes
4,6,9,0,0,5,0,0,0,0,0,0,0,1507,0,No
5,2,7,0,0,4,0,0,0,0,0,0,0,1507,0,No
5,7,8,0,0,4,0,0,0,0,0,0,0,1507,0,No
6,5,9,0,0,4,0,0,0,0,0,0,0,1507,0,No
5,4,8,0,0,4,0,0,0,0,0,0,0,881,0,No
5,6,7,0,0,5,0,0,0,0,0,0,0,1442,0,No
4,3,4,0,0,4,0,0,0,0,0,0,0,975,0,No
8,6,14,0,0,4,0,0,0,0,0,0,0,1048,0,No
7,3,10,0,0,4,0,0,0,0,0,0,0,873,0,No
8,4,12,0,0,4,0,0,0,0,0,0,0,873,0,No
9,16,32,0,0,7,0,0,0,0,0,0,0,1463,0,No
25,17,60,0,0,7,0,0,0,0,0,0,0,1507,0,No
5,7,8,0,0,4,0,0,0,0,0,0,0,1507,0,No
11,6,21,0,0,5,0,0,0,0,0,0,0,1507,0,No
9,7,14,0,0,4,0,0,0,0,0,0,0,1507,0,No
15,11,32,0,0,9,0,0,0,0,0,0,0,1262,0,No
4,3,4,0,0,4,0,0,0,0,0,0,0,975,0,No
5,2,7,0,0,4,0,0,0,0,0,0,0,1507,0,No
5,7,8,0,0,4,0,0,0,0,0,0,0,1507,0,No
2,2,2,0,0,4,0,0,0,0,0,0,0,1489,0,No
1,2,2,0,0,5,0,0,0,0,0,0,0,1518,0,No
1,3,6,0,0,6,0,0,0,0,0,0,0,1518,0,No
1,2,2,0,1,5,0,0,0,0,0,0,0,1489,0,No
0,1,0,0,0,5,0,0,0,0,0,0,0,1518,0,No
0,0,0,0,0,3,0,0,0,0,0,0,0,1518,0,No
1,1,1,0,0,3,0,0,0,0,0,0,0,1489,0,No
2,1,2,0,3,4,0,0,0,0,0,0,0,1518,0,No
0,0,0,0,0,4,0,0,0,0,0,0,0,1314,0,No
0,0,0,0,0,4,0,0,0,0,0,0,0,1314,0,No
0,0,0,0,0,4,0,0,0,0,0,0,0,1314,0,No
0,0,0,0,0,4,0,0,0,0,0,0,0,1314,0,No
1,0,2,0,0,4,0,0,0,0,0,0,0,1314,0,No
0,0,0,0,0,4,0,0,0,0,0,0,0,1314,0,No
4,1,7,0,2,5,0,0,0,0,0,0,0,1314,0,No
0,0,0,0,0,4,0,0,0,0,0,0,0,1079,0,No
1,2,7,0,2,5,0,0,0,0,0,0,0,975,0,No
0,0,0,0,0,4,0,0,0,0,0,0,0,1314,0,No
0,0,0,0,0,4,0,0,0,0,0,0,0,1079,0,No
0,0,0,0,0,4,0,0,0,0,0,0,0,1079,0,No
0,0,0,0,0,4,0,0,0,0,0,0,0,1079,0,No
0,0,0,0,0,4,0,0,0,0,0,0,0,1314,0,No
0,0,0,0,1,4,0,0,0,0,0,0,0,1314,0,No
2,13,17,0,1,1,0,0,0,0,0,0,0,285,0,No
1,3,5,0,2,5,0,0,0,0,0,0,0,1314,0,No
0,0,0,0,0,4,0,0,0,0,0,0,0,1079,0,No
1,3,7,2,2,9,1,1,0,0,1,16,36,1073,0,No
0,0,0,0,1,4,0,0,0,0,0,0,0,1314,0,No
1,2,2,0,2,3,0,0,0,0,0,0,0,615,0,No
0,0,0,0,0,4,0,0,0,0,0,0,0,1314,0,No
1,2,3,0,2,3,0,0,0,0,0,0,0,615,0,No
0,0,0,0,0,5,0,0,0,0,0,0,0,1314,0,No
3,13,23,0,2,7,0,0,0,0,0,0,0,985,0,Yes
1,3,24,0,2,7,0,0,0,0,0,0,0,978,0,No
0,0,0,0,0,4,0,0,0,0,0,0,0,1479,0,No
12,2,58,0,0,7,0,0,0,0,0,0,0,1035,0,No
0,0,0,0,0,4,0,0,0,0,0,0,0,1479,0,No
0,0,0,0,0,5,0,0,0,0,0,0,0,1479,0,No
1,1,1,0,1,6,0,0,0,0,0,0,0,978,0,No
17,4,17,0,0,3,0,0,0,0,0,0,0,531,0,No
4,3,4,0,0,4,0,0,0,0,0,0,0,562,0,No
2,2,2,0,0,5,0,0,0,0,0,0,0,1479,0,No
16,1,42,0,1,5,0,0,0,0,0,0,0,1433,0,No
1,0,1,0,1,4,0,0,0,0,0,0,0,1518,0,No
3,3,3,0,0,4,0,0,0,0,0,0,0,870,0,No
4,2,4,0,1,2,0,0,0,0,0,0,0,618,0,No
0,0,0,0,0,6,0,0,0,0,0,0,0,1479,0,No
4,5,10,0,0,5,0,0,0,0,0,0,0,596,0,No
2,7,11,2,3,4,1,1,0,0,1,16,36,574,0,No
0,0,0,0,0,3,0,0,0,0,0,0,0,1479,0,No
1,0,1,0,2,3,0,0,0,0,0,0,0,1479,0,No
1,0,1,0,1,3,0,0,0,0,0,0,0,1479,0,No
0,0,0,0,0,3,0,0,0,0,0,0,0,1479,0,No
4,1,5,0,1,4,0,0,0,0,0,0,0,1079,0,No
0,0,0,0,0,4,0,0,0,0,0,0,0,1079,0,No
2,1,2,0,0,5,0,0,0,0,0,0,0,873,0,No
0,1,0,0,0,4,0,0,0,0,0,0,0,1079,0,No
2,2,11,0,1,3,0,0,0,0,0,0,0,848,0,No
10,0,10,0,0,1,0,0,0,0,0,0,0,244,0,No
3,4,4,0,1,5,0,0,0,0,0,0,0,1297,0,No
1,0,1,0,0,4,0,0,0,0,0,0,0,1518,0,No
0,0,0,0,1,2,0,0,0,0,0,0,0,239,0,No
9,9,21,0,1,7,0,0,0,0,0,0,0,965,0,No
2,2,2,0,0,4,0,0,0,0,0,0,0,1479,0,No
2,2,2,0,0,4,0,0,0,0,0,0,0,1443,0,No
5,9,35,70,0,6,43,35,16,16,7,13,18,1458,0,No
2,2,2,0,0,5,0,0,0,0,0,0,0,1479,0,No
4,6,7,0,2,4,0,0,0,0,0,0,0,1470,0,No
3,2,3,0,1,5,0,0,0,0,0,0,0,975,0,No
3,19,35,0,1,5,0,0,0,0,0,0,0,1034,0,No
13,23,57,2,3,6,1,1,0,0,1,16,36,1456,0,No
4,10,9,0,2,5,0,0,0,0,0,0,0,1470,0,No
8,0,10,0,0,4,0,0,0,0,0,0,0,1485,0,No
6,8,10,0,0,6,0,0,0,0,0,0,0,965,0,No
4,2,4,0,0,5,0,0,0,0,0,0,0,1153,0,No
2,2,4,0,0,4,0,0,0,0,0,0,0,667,0,No
1,1,3,0,0,1,0,0,0,0,0,0,0,456,0,No
1,7,9,0,2,4,0,0,0,0,0,0,0,1294,0,No
10,8,10,0,1,4,0,0,0,0,0,0,0,530,0,No
14,10,16,0,0,5,0,0,0,0,0,0,0,529,0,No
1,0,1,0,0,6,0,0,0,0,0,0,0,1518,0,No
32,0,32,0,0,3,0,0,0,0,0,0,0,530,0,No
2,4,2,0,0,5,0,0,0,0,0,0,0,1518,0,No
6,4,6,0,0,2,0,0,0,0,0,0,0,524,0,No
8,10,22,0,1,4,0,0,0,0,0,0,0,525,0,No
14,9,15,0,0,3,0,0,0,0,0,0,0,524,0,No
11,10,11,0,0,5,0,0,0,0,0,0,0,529,0,No
14,7,14,0,1,3,0,0,0,0,0,0,0,523,0,No
6,11,21,0,0,4,0,0,0,0,0,0,0,526,0,No
16,17,24,0,0,5,0,0,0,0,0,0,0,519,0,No
7,5,10,0,0,2,0,0,0,0,0,0,0,524,0,No
26,10,26,0,2,5,0,0,0,0,0,0,0,520,0,No
5,4,5,0,1,6,0,0,0,0,0,0,0,1518,0,No
1,1,1,0,1,6,0,0,0,0,0,0,0,1479,0,No
15,3,20,6,0,6,3,3,0,0,1,16,36,971,0,No
7,25,29,0,3,5,0,0,0,0,0,0,0,555,0,No
3,0,3,0,0,3,0,0,0,0,0,0,0,1518,0,No
13,1,16,2,2,1,1,1,0,0,1,16,36,489,0,No
0,0,0,0,0,5,0,0,0,0,0,0,0,1479,0,No
4,1,16,2,1,4,1,1,0,0,1,16,36,667,0,No
4,10,20,0,0,4,0,0,0,0,0,0,0,1079,0,No
1,0,5,0,1,1,0,0,0,0,0,0,0,462,0,No
5,1,14,0,1,2,0,0,0,0,0,0,0,504,0,No
6,1,6,8,1,3,4,4,0,0,1,16,36,504,0,No
7,0,8,0,0,4,0,0,0,0,0,0,0,1518,0,No
2,1,4,0,0,4,0,0,0,0,0,0,0,950,0,No
2,0,4,0,0,4,0,0,0,0,0,0,0,1518,0,No
2,0,2,0,0,5,0,0,0,0,0,0,0,1479,0,No
14,0,18,4,1,5,2,2,0,0,1,16,36,902,0,No
7,3,7,0,2,5,0,0,0,0,0,0,0,596,0,No
0,1,0,0,1,5,0,0,0,0,0,0,0,1079,0,No
3,0,3,0,1,6,0,0,0,0,0,0,0,1479,0,No
9,1,9,8,1,4,4,4,0,0,1,16,36,968,0,Yes
0,0,0,0,0,3,0,0,0,0,0,0,0,1479,0,No
5,9,5,0,0,4,0,0,0,0,0,0,0,596,0,No
10,11,10,0,1,4,0,0,0,0,0,0,0,596,0,No
4,7,4,0,0,3,0,0,0,0,0,0,0,596,0,No
13,9,13,0,1,8,0,0,0,0,0,0,0,986,0,No
14,11,18,0,6,7,0,0,0,0,0,0,0,1003,0,No
1,1,1,0,0,3,0,0,0,0,0,0,0,1079,0,No
1,0,1,0,0,3,0,0,0,0,0,0,0,1079,0,No
4,0,4,0,0,3,0,0,0,0,0,0,0,1079,0,No
2,3,2,0,0,3,0,0,0,0,0,0,0,992,0,No
1,1,1,0,1,4,0,0,0,0,0,0,0,1079,0,No
1,3,1,0,0,5,0,0,0,0,0,0,0,992,0,No
1,2,2,0,1,4,0,0,0,0,0,0,0,992,0,No
1,2,1,0,0,3,0,0,0,0,0,0,0,992,0,No
1,4,1,0,0,5,0,0,0,0,0,0,0,992,0,No
16,9,18,10,1,1,5,5,0,0,5,10,17,353,0,No
2,0,4,0,0,1,0,0,0,0,0,0,0,412,0,No
3,4,3,108,0,4,54,54,0,0,5,19,136,1585,0,No
7,1,14,192,0,1,96,96,0,0,5,19,136,33,0,No
11,1,13,194,0,1,97,97,0,0,5,19,136,100,0,No
0,0,0,52,0,5,26,26,0,0,5,19,136,1146,0,No
0,1,0,74,0,4,37,37,0,0,5,19,136,1146,0,No
0,0,0,56,0,4,28,28,0,0,5,19,136,1146,0,No
9,1,14,226,0,5,113,113,0,0,5,19,136,1501,0,No
3,0,5,0,0,5,0,0,0,0,0,0,0,1585,0,No
5,1,6,156,0,4,78,78,0,0,5,19,136,1501,0,No
3,0,4,92,0,5,46,46,0,0,5,19,136,1585,0,No
2,1,2,108,1,4,54,54,0,0,5,19,136,1585,0,No
5,2,5,162,0,2,81,81,0,0,5,19,136,252,0,No
46,0,65,602,1,4,301,301,0,0,5,19,136,1521,0,No
9,1,9,0,0,2,0,0,0,0,0,0,0,613,0,No
9,0,14,202,0,5,101,101,0,0,5,19,136,1501,0,No
0,1,0,0,0,0,0,0,0,0,0,0,0,0,0,No
0,0,0,0,0,0,0,0,0,0,0,0,0,0,0,No
2,1,2,102,0,5,51,51,0,0,5,19,136,1146,0,No
1,0,1,64,0,4,32,32,0,0,5,19,136,940,0,No
6,2,6,0,0,5,0,0,0,0,0,0,0,940,0,No
11,1,13,218,0,3,109,109,0,0,5,19,136,915,0,No
6,2,6,230,0,5,115,115,0,0,5,19,136,940,0,No
0,1,0,0,0,0,0,0,0,0,0,0,0,0,0,No
3,1,3,0,0,0,0,0,0,0,0,0,0,0,0,No
5,2,5,0,0,1,0,0,0,0,0,0,0,261,0,No
11,1,11,0,0,0,0,0,0,0,0,0,0,0,0,No
0,1,0,0,0,1,0,0,0,0,0,0,0,247,0,No
7,0,7,0,0,1,0,0,0,0,0,0,0,265,0,No
2,0,2,0,0,3,0,0,0,0,0,0,0,1546,0,No
2,0,4,0,0,0,0,0,0,0,0,0,0,0,0,No
11,0,11,0,1,2,0,0,0,0,0,0,0,265,0,No
9,0,9,0,1,2,0,0,0,0,0,0,0,265,0,No
2,0,2,0,1,2,0,0,0,0,0,0,0,265,0,No
7,4,7,224,1,3,112,112,0,0,5,19,136,612,0,No
13,7,13,404,1,3,202,202,0,0,5,19,136,612,0,No
2,1,2,108,0,4,54,54,0,0,5,19,136,1585,0,No
5,1,5,196,0,4,98,98,0,0,5,19,136,607,0,No
7,3,7,256,3,3,128,128,0,0,5,19,136,608,0,No
13,5,13,390,2,3,195,195,0,0,5,19,136,611,0,No
11,8,11,368,0,3,184,184,0,0,5,19,136,611,0,No
17,6,17,598,2,4,299,299,0,0,5,19,136,613,0,No
5,3,5,238,0,3,119,119,0,0,5,19,136,607,0,No
16,11,16,490,3,4,245,245,0,0,5,19,136,608,0,No
5,2,5,6,1,7,5,5,4,4,3,23,42,1585,0,No
18,10,18,4,3,6,3,3,2,2,3,23,42,613,0,No
4,2,4,178,1,4,89,89,0,0,5,19,136,612,0,No
6,0,8,172,0,7,86,86,0,0,5,19,136,1552,0,No
10,1,14,178,0,4,89,89,0,0,5,19,136,1423,0,No
8,2,8,182,0,4,91,91,0,0,5,19,136,1585,0,No
2,1,2,90,0,4,45,45,0,0,5,19,136,1585,0,No
3,0,7,0,0,5,0,0,0,0,0,0,0,1585,0,No
15,2,15,234,0,5,117,117,0,0,5,19,136,1146,0,No
9,1,11,0,0,2,0,0,0,0,0,0,0,409,0,No
9,1,13,200,0,6,100,100,0,0,5,19,136,1423,0,No
3,2,3,138,0,4,69,69,0,0,5,19,136,1585,0,No
5,1,5,188,0,5,94,94,0,0,5,19,136,1585,0,No
0,0,0,60,0,1,30,30,0,0,5,19,136,247,0,No
11,2,11,194,0,4,97,97,0,0,5,19,136,1523,0,No
19,3,21,354,0,7,177,177,0,0,5,19,136,1525,0,No
2,0,3,116,1,6,58,58,0,0,5,19,136,961,0,No
10,1,10,0,0,1,0,0,0,0,0,0,0,285,0,No
2,0,2,78,0,4,39,39,0,0,5,19,136,1542,0,No
7,2,8,0,2,2,0,0,0,0,0,0,0,306,0,No
4,2,4,104,0,4,52,52,0,0,5,19,136,1585,0,No
16,3,16,270,0,6,135,135,0,0,5,19,136,1530,0,No
4,0,4,98,0,5,49,49,0,0,5,19,136,1585,0,No
26,3,26,354,0,7,177,177,0,0,5,19,136,1042,0,No
13,1,13,212,0,6,106,106,0,0,5,19,136,1035,0,No
2,2,2,110,0,4,55,55,0,0,5,19,136,1585,0,No
18,3,18,246,0,4,123,123,0,0,5,19,136,1423,0,No
4,0,4,98,0,2,49,49,0,0,5,19,136,247,0,No
2,0,2,80,0,4,40,40,0,0,5,19,136,1146,0,No
18,2,26,306,0,5,153,153,0,0,5,19,136,940,0,No
40,3,40,540,1,5,270,270,0,0,5,19,136,1521,0,No
35,0,39,516,1,5,258,258,0,0,5,19,136,1514,0,No
12,0,16,202,0,5,101,101,0,0,5,19,136,1585,0,No
24,2,25,312,0,6,156,156,0,0,5,19,136,1585,0,No
2,2,2,110,0,4,55,55,0,0,5,19,136,1585,0,No
6,0,6,118,0,5,59,59,0,0,5,19,136,1146,0,No
2,0,2,78,0,4,39,39,0,0,5,19,136,1423,0,No
2,0,2,76,0,5,38,38,0,0,5,19,136,1585,0,No
17,2,17,242,0,4,121,121,0,0,5,19,136,1048,0,No
0,1,0,0,0,0,0,0,0,0,0,0,0,0,0,No
18,1,22,380,0,5,190,190,0,0,5,19,136,1546,0,No
0,0,0,62,0,5,31,31,0,0,5,19,136,1546,0,No
7,4,10,220,2,3,110,110,0,0,5,19,136,899,0,No
2,0,2,108,0,6,54,54,0,0,5,19,136,1546,0,No
1,0,1,82,0,4,41,41,0,0,5,19,136,1546,0,No
0,0,0,78,0,5,39,39,0,0,5,19,136,1546,0,No
2,0,2,144,2,3,72,72,0,0,5,19,136,872,0,No
2,0,2,98,0,4,49,49,0,0,5,19,136,1546,0,No
1,0,1,92,0,5,46,46,0,0,5,19,136,1546,0,No
0,0,0,0,1,3,0,0,0,0,0,0,0,566,0,No
0,0,0,108,0,5,54,54,0,0,5,19,136,1546,0,No
46,1,50,747,0,7,380,367,13,13,8,42,178,1115,0,No
0,0,0,58,0,4,29,29,0,0,5,19,136,1546,0,No
0,0,0,0,0,5,0,0,0,0,0,0,0,1146,0,No
0,0,0,64,0,4,32,32,0,0,5,19,136,1546,0,No
0,0,0,0,0,5,0,0,0,0,0,0,0,1546,0,No
0,0,0,0,0,5,0,0,0,0,0,0,0,1546,0,No
0,0,0,62,1,6,31,31,0,0,5,19,136,1546,0,No
1,0,2,68,0,5,34,34,0,0,5,19,136,1546,0,No
8,2,9,194,0,8,97,97,0,0,5,19,136,1546,0,No
0,0,0,86,0,4,43,43,0,0,5,19,136,1546,0,No
0,0,0,94,0,5,47,47,0,0,5,19,136,1546,0,No
0,0,0,64,0,4,32,32,0,0,5,19,136,1146,0,No
2,0,2,0,0,0,0,0,0,0,0,0,0,0,0,No
0,1,0,46,0,4,23,23,0,0,5,19,136,1546,0,No
10,13,67,993,1,7,497,495,1,1,8,42,178,1028,0,No
0,0,0,60,0,1,30,30,0,0,5,19,136,247,0,No
0,0,0,60,0,1,30,30,0,0,5,19,136,247,0,No
0,0,0,60,0,1,30,30,0,0,5,19,136,247,0,No
0,0,0,60,0,1,30,30,0,0,5,19,136,247,0,No
0,0,0,60,0,1,30,30,0,0,5,19,136,247,0,No
0,0,0,60,0,2,30,30,0,0,5,19,136,247,0,No
0,0,0,60,0,1,30,30,0,0,5,19,136,247,0,No
0,0,0,0,0,1,0,0,0,0,0,0,0,247,0,No
0,0,0,0,1,6,0,0,0,0,0,0,0,1546,0,No
0,0,0,60,0,1,30,30,0,0,5,19,136,247,0,No
0,0,0,60,0,1,30,30,0,0,5,19,136,247,0,No
0,1,0,0,0,1,0,0,0,0,0,0,0,247,0,No
14,20,27,0,1,6,0,0,0,0,0,0,0,1546,0,No
20,3,24,0,3,8,0,0,0,0,0,0,0,1546,0,No
1,0,1,0,0,1,0,0,0,0,0,0,0,335,0,No
3,0,3,0,0,2,0,0,0,0,0,0,0,747,0,No
0,0,0,0,0,3,0,0,0,0,0,0,0,478,0,No
0,0,0,0,0,2,0,0,0,0,0,0,0,478,0,No
0,0,0,0,0,4,0,0,0,0,0,0,0,1546,0,No
6,0,9,0,0,4,0,0,0,0,0,0,0,927,0,No
2,0,2,0,0,5,0,0,0,0,0,0,0,1146,0,No
1,6,3,0,1,4,0,0,0,0,0,0,0,1215,0,No
2,0,3,0,0,3,0,0,0,0,0,0,0,1585,0,No
2,0,7,0,1,5,0,0,0,0,0,0,0,1265,0,No
2,0,7,0,0,6,0,0,0,0,0,0,0,1374,0,No
5,1,5,0,0,1,0,0,0,0,0,0,0,312,0,No
3,2,3,0,0,4,0,0,0,0,0,0,0,1585,0,No
12,3,12,0,0,4,0,0,0,0,0,0,0,1585,0,No
2,0,6,0,0,1,0,0,0,0,0,0,0,69,0,No
1,0,1,0,1,7,0,0,0,0,0,0,0,1585,0,No
2,0,4,0,0,1,0,0,0,0,0,0,0,584,0,No
4,12,4,0,1,6,0,0,0,0,0,0,0,1546,0,No
2,2,2,0,0,5,0,0,0,0,0,0,0,1215,0,No
0,0,0,0,0,2,0,0,0,0,0,0,0,335,0,No
8,8,9,147,1,8,78,78,9,9,2,8,19,1145,0,No
0,0,0,0,0,4,0,0,0,0,0,0,0,1546,0,No
0,1,0,0,1,5,0,0,0,0,0,0,0,1546,0,No
0,0,0,0,1,5,0,0,0,0,0,0,0,1546,0,No
4,2,4,0,0,3,0,0,0,0,0,0,0,544,0,No
3,5,13,0,0,2,0,0,0,0,0,0,0,550,0,No
2,8,5,2,6,6,1,1,0,0,3,23,42,940,0,No
0,0,0,0,1,3,0,0,0,0,0,0,0,1546,0,No
0,0,0,0,0,3,0,0,0,0,0,0,0,1146,0,No
0,0,0,0,0,1,0,0,0,0,0,0,0,415,0,No
0,0,0,0,0,3,0,0,0,0,0,0,0,1546,0,No
0,1,0,0,0,5,0,0,0,0,0,0,0,1544,0,No
0,3,0,0,1,6,0,0,0,0,0,0,0,1035,0,No
0,2,0,0,1,4,0,0,0,0,0,0,0,1215,0,No
5,8,8,24,0,2,10,10,-4,0,2,8,19,79,0,No
3,3,3,0,0,4,0,0,0,0,0,0,0,927,0,No
1,2,1,0,0,5,0,0,0,0,0,0,0,1215,0,No
2,2,3,0,0,7,0,0,0,0,0,0,0,1145,0,No
2,5,3,6,1,8,6,6,6,6,2,8,19,1145,0,No
2,2,2,0,0,5,0,0,0,0,0,0,0,1215,0,No
2,1,2,0,0,5,0,0,0,0,0,0,0,1215,0,No
2,3,2,0,0,6,0,0,0,0,0,0,0,1546,0,No
6,10,12,0,0,1,0,0,0,0,0,0,0,79,0,No
0,3,0,0,1,3,0,0,0,0,0,0,0,478,0,No
0,3,0,0,0,6,0,0,0,0,0,0,0,940,0,No
10,6,10,0,0,1,0,0,0,0,0,0,0,335,0,No
1,0,1,0,0,1,0,0,0,0,0,0,0,335,0,No
2,0,2,0,0,4,0,0,0,0,0,0,0,1546,0,No
11,13,33,0,6,7,0,0,0,0,0,0,0,1130,0,No
3,1,7,0,1,2,0,0,0,0,0,0,0,124,0,No
13,0,13,0,0,0,0,0,0,0,0,0,0,0,0,No
3,5,4,0,2,5,0,0,0,0,0,0,0,678,0,No
10,1,14,0,2,2,0,0,0,0,0,0,0,306,0,No
0,3,0,0,0,6,0,0,0,0,0,0,0,940,0,No
2,2,5,0,0,1,0,0,0,0,0,0,0,69,0,No
1,1,2,0,0,1,0,0,0,0,0,0,0,69,0,No
2,1,2,3,0,1,1,1,-1,0,5,10,17,289,0,No
1,1,5,5,0,1,2,2,-1,0,5,10,17,289,0,No
3,2,3,0,2,6,0,0,0,0,0,0,0,1045,0,No
2,2,2,0,1,5,0,0,0,0,0,0,0,1342,0,No
5,3,7,0,1,5,0,0,0,0,0,0,0,1585,0,No
5,3,5,0,0,6,0,0,0,0,0,0,0,1494,0,No
2,0,2,0,0,4,0,0,0,0,0,0,0,1546,0,No
8,7,11,0,1,6,0,0,0,0,0,0,0,1494,0,No
6,5,6,0,1,6,0,0,0,0,0,0,0,1035,0,No
11,5,13,0,2,6,0,0,0,0,0,0,0,927,0,No
8,11,12,0,0,6,0,0,0,0,0,0,0,1515,0,No
17,14,17,4,2,7,2,2,0,0,1,1,3,1515,0,Yes
20,11,35,0,2,8,0,0,0,0,0,0,0,1585,0,No
18,15,26,12,2,8,12,12,12,12,2,8,19,1410,0,No
18,17,19,8,3,8,4,2,0,0,4,24,45,1536,0,No
4,0,4,0,0,1,0,0,0,0,0,0,0,927,0,No
3,1,5,0,1,2,0,0,0,0,0,0,0,566,0,No
3,1,5,0,1,4,0,0,0,0,0,0,0,1265,0,No
2,0,2,0,1,4,0,0,0,0,0,0,0,1265,0,No
3,2,6,0,0,2,0,0,0,0,0,0,0,544,0,No
1,2,10,0,1,4,0,0,0,0,0,0,0,1032,0,No
0,0,0,0,0,4,0,0,0,0,0,0,0,1546,0,No
0,1,0,0,0,4,0,0,0,0,0,0,0,1546,0,No
3,0,3,0,0,5,0,0,0,0,0,0,0,1035,0,No
1,0,2,0,1,4,0,0,0,0,0,0,0,1546,0,No
1,0,2,0,1,5,0,0,0,0,0,0,0,1035,0,No
1,1,2,0,0,4,0,0,0,0,0,0,0,1035,0,No
1,2,3,0,0,4,0,0,0,0,0,0,0,1035,0,No
1,0,1,0,0,4,0,0,0,0,0,0,0,1546,0,No
32,3,82,0,2,5,0,0,0,0,0,0,0,954,0,No
8,1,25,2,2,8,1,1,0,0,1,1,8,1494,0,No
2,1,2,0,0,3,0,0,0,0,0,0,0,1304,0,No
3,1,3,0,1,5,0,0,0,0,0,0,0,1102,0,No
2,1,3,2,1,5,1,1,0,0,1,1,8,1494,0,No
1,0,1,0,0,4,0,0,0,0,0,0,0,1546,0,No
6,1,28,32,1,7,18,18,4,4,1,1,8,1102,0,No
20,0,34,18,4,7,5,5,-8,0,1,1,8,1102,0,No
0,0,0,0,0,3,0,0,0,0,0,0,0,1546,0,No
5,1,9,0,0,1,0,0,0,0,0,0,0,104,0,No
8,1,13,0,0,6,0,0,0,0,0,0,0,1102,0,Yes
1,0,1,0,2,1,0,0,0,0,0,0,0,576,0,No
1,0,1,0,0,5,0,0,0,0,0,0,0,1546,0,No
1,1,5,0,0,1,0,0,0,0,0,0,0,69,0,No
2,1,2,0,0,1,0,0,0,0,0,0,0,69,0,No
1,0,1,0,0,5,0,0,0,0,0,0,0,1546,0,No
1,0,1,0,0,5,0,0,0,0,0,0,0,1146,0,No
6,4,7,0,0,4,0,0,0,0,0,0,0,1031,0,No
1,1,1,0,0,4,0,0,0,0,0,0,0,1146,0,No
2,0,2,0,0,3,0,0,0,0,0,0,0,537,0,No
2,0,4,38,0,2,20,20,2,2,3,6,9,68,0,No
3,2,13,0,0,1,0,0,0,0,0,0,0,285,0,No
1,5,10,0,1,5,0,0,0,0,0,0,0,948,0,No
1,2,1,0,1,6,0,0,0,0,0,0,0,1201,0,No
2,1,2,0,1,5,0,0,0,0,0,0,0,1146,0,No
1,2,2,0,0,2,0,0,0,0,0,0,0,409,0,No
11,3,16,0,0,6,0,0,0,0,0,0,0,1539,0,No
5,1,5,0,1,3,0,0,0,0,0,0,0,1585,0,No
2,0,2,0,0,3,0,0,0,0,0,0,0,1546,0,No
20,7,68,0,2,5,0,0,0,0,0,0,0,1574,0,No
19,0,37,0,1,4,0,0,0,0,0,0,0,1539,0,No
5,1,5,1,2,6,0,0,-1,0,5,10,17,1559,0,No
8,0,13,1,0,5,0,0,-1,0,5,10,17,940,0,No
17,2,24,0,0,5,0,0,0,0,0,0,0,1530,0,No
2,0,2,0,2,5,0,0,0,0,0,0,0,1572,0,No
6,0,8,0,0,1,0,0,0,0,0,0,0,80,0,No
16,3,16,0,0,7,0,0,0,0,0,0,0,1146,0,No
8,0,11,0,0,5,0,0,0,0,0,0,0,1220,0,No
5,1,7,0,0,5,0,0,0,0,0,0,0,1539,0,No
25,4,32,8,0,5,4,4,0,0,1,2,3,1550,0,No
10,0,10,0,0,1,0,0,0,0,0,0,0,285,0,No
4,0,4,0,0,4,0,0,0,0,0,0,0,1574,0,No
41,7,47,22,0,6,5,4,-12,0,3,10,22,1530,0,No
31,3,39,0,2,6,0,0,0,0,0,0,0,1042,0,No
16,1,17,0,0,5,0,0,0,0,0,0,0,1035,0,No
0,1,0,0,0,4,0,0,0,0,0,0,0,1539,0,No
6,4,6,0,2,5,0,0,0,0,0,0,0,1115,0,No
18,5,19,2,0,5,1,1,0,0,5,10,17,1423,0,No
0,1,0,0,0,5,0,0,0,0,0,0,0,1539,0,No
4,1,4,0,0,4,0,0,0,0,0,0,0,1546,0,No
6,1,8,0,0,4,0,0,0,0,0,0,0,940,0,No
5,2,7,0,0,4,0,0,0,0,0,0,0,940,0,No
8,1,8,0,0,5,0,0,0,0,0,0,0,1146,0,No
0,1,0,0,0,5,0,0,0,0,0,0,0,1539,0,No
6,4,8,0,1,7,0,0,0,0,0,0,0,1146,0,No
6,2,6,0,0,4,0,0,0,0,0,0,0,1574,0,No
5,0,10,0,0,4,0,0,0,0,0,0,0,1423,0,No
4,0,4,0,0,3,0,0,0,0,0,0,0,1423,0,No
10,4,14,0,0,5,0,0,0,0,0,0,0,1539,0,No
5,3,7,0,0,5,0,0,0,0,0,0,0,1381,0,No
3,2,4,0,0,5,0,0,0,0,0,0,0,1585,0,No
0,1,0,0,1,4,0,0,0,0,0,0,0,1539,0,No
14,4,18,0,0,1,0,0,0,0,0,0,0,75,0,No
11,4,16,0,0,5,0,0,0,0,0,0,0,1539,0,Yes
4,2,4,0,0,4,0,0,0,0,0,0,0,1539,0,No
5,3,7,0,0,5,0,0,0,0,0,0,0,1381,0,No
3,2,4,0,0,5,0,0,0,0,0,0,0,1585,0,No
5,3,7,0,0,5,0,0,0,0,0,0,0,1539,0,No
4,2,4,0,0,4,0,0,0,0,0,0,0,1539,0,No
0,1,0,0,0,4,0,0,0,0,0,0,0,1539,0,No
0,1,0,0,0,4,0,0,0,0,0,0,0,1539,0,No
5,3,7,0,1,7,0,0,0,0,0,0,0,1539,0,No
4,2,4,0,0,4,0,0,0,0,0,0,0,1539,0,No
0,1,0,0,0,4,0,0,0,0,0,0,0,1539,0,No
18,6,43,0,0,6,0,0,0,0,0,0,0,1509,0,No
0,0,0,0,0,3,0,0,0,0,0,0,0,1546,0,No
11,4,16,0,0,5,0,0,0,0,0,0,0,1539,0,Yes
4,1,4,0,0,5,0,0,0,0,0,0,0,1585,0,No
5,3,7,0,0,5,0,0,0,0,0,0,0,1381,0,No
3,2,4,0,0,5,0,0,0,0,0,0,0,1585,0,No
5,3,7,0,0,5,0,0,0,0,0,0,0,1539,0,No
4,1,4,0,0,5,0,0,0,0,0,0,0,1585,0,No
0,1,0,0,0,4,0,0,0,0,0,0,0,1539,0,No
3,2,5,0,0,5,0,0,0,0,0,0,0,1585,0,No
0,1,0,0,0,4,0,0,0,0,0,0,0,1539,0,No
5,3,7,0,0,6,0,0,0,0,0,0,0,1539,0,No
4,1,4,0,0,5,0,0,0,0,0,0,0,1585,0,No
0,1,0,0,0,4,0,0,0,0,0,0,0,1539,0,No
51,18,95,0,0,5,0,0,0,0,0,0,0,1539,0,Yes
10,4,14,0,0,5,0,0,0,0,0,0,0,1539,0,Yes
5,3,7,0,0,5,0,0,0,0,0,0,0,1381,0,No
3,2,4,0,0,5,0,0,0,0,0,0,0,1585,0,No
4,3,5,0,0,5,0,0,0,0,0,0,0,1539,0,No
0,1,0,0,1,4,0,0,0,0,0,0,0,1539,0,No
3,2,5,0,0,5,0,0,0,0,0,0,0,1585,0,No
0,1,0,0,1,4,0,0,0,0,0,0,0,1539,0,No
4,3,5,0,0,6,0,0,0,0,0,0,0,1539,0,No
0,1,0,0,1,4,0,0,0,0,0,0,0,1539,0,No
3,1,3,0,0,4,0,0,0,0,0,0,0,1585,0,No
4,2,4,0,0,4,0,0,0,0,0,0,0,1585,0,No
5,2,5,0,0,4,0,0,0,0,0,0,0,1585,0,No
5,2,5,0,0,4,0,0,0,0,0,0,0,1585,0,No
4,2,4,0,0,4,0,0,0,0,0,0,0,1585,0,No
2,1,2,0,0,5,0,0,0,0,0,0,0,1546,0,No
4,1,4,0,0,3,0,0,0,0,0,0,0,1546,0,No
5,2,5,0,0,4,0,0,0,0,0,0,0,1585,0,No
5,4,5,0,0,4,0,0,0,0,0,0,0,1585,0,No
6,3,6,0,0,4,0,0,0,0,0,0,0,1585,0,No
5,3,5,0,0,4,0,0,0,0,0,0,0,1585,0,No
5,4,5,0,0,4,0,0,0,0,0,0,0,1585,0,No
0,0,0,0,0,5,0,0,0,0,0,0,0,1546,0,No
4,2,4,0,0,4,0,0,0,0,0,0,0,1146,0,No
9,6,9,3,1,5,0,0,-3,0,2,8,19,1546,0,No
7,3,7,0,1,4,0,0,0,0,0,0,0,1585,0,No
7,3,7,0,0,4,0,0,0,0,0,0,0,1585,0,No
8,6,8,0,0,4,0,0,0,0,0,0,0,1585,0,No
22,9,22,0,1,6,0,0,0,0,0,0,0,1585,0,No
5,4,5,0,0,4,0,0,0,0,0,0,0,1585,0,No
4,4,4,0,0,6,0,0,0,0,0,0,0,1585,0,No
5,4,5,0,1,6,0,0,0,0,0,0,0,1585,0,No
10,4,10,0,1,4,0,0,0,0,0,0,0,1585,0,No
8,3,8,0,0,4,0,0,0,0,0,0,0,1585,0,No
13,5,13,0,1,6,0,0,0,0,0,0,0,1585,0,No
5,2,5,0,0,4,0,0,0,0,0,0,0,1585,0,No
5,4,5,0,0,4,0,0,0,0,0,0,0,1585,0,No
3,2,5,0,0,4,0,0,0,0,0,0,0,1574,0,No
4,3,6,0,0,1,0,0,0,0,0,0,0,332,0,No
5,2,7,0,0,4,0,0,0,0,0,0,0,1574,0,Yes
5,7,8,0,0,4,0,0,0,0,0,0,0,1574,0,No
4,6,9,0,0,5,0,0,0,0,0,0,0,1574,0,No
5,2,7,0,0,4,0,0,0,0,0,0,0,1574,0,No
5,10,11,0,0,4,0,0,0,0,0,0,0,1574,0,No
6,5,9,0,0,4,0,0,0,0,0,0,0,1574,0,No
5,4,8,0,0,4,0,0,0,0,0,0,0,948,0,No
5,5,7,0,0,5,0,0,0,0,0,0,0,1509,0,No
4,3,4,0,0,4,0,0,0,0,0,0,0,1042,0,No
1,0,6,0,2,6,0,0,0,0,0,0,0,1585,0,No
9,9,27,9,0,5,0,0,-9,0,2,8,19,1115,0,No
7,4,10,0,2,4,0,0,0,0,0,0,0,940,0,No
8,4,12,0,0,4,0,0,0,0,0,0,0,940,0,No
9,19,33,0,0,7,0,0,0,0,0,0,0,1530,0,No
30,36,89,0,2,7,0,0,0,0,0,0,0,1574,0,No
5,12,13,0,0,4,0,0,0,0,0,0,0,1574,0,No
11,8,22,0,2,5,0,0,0,0,0,0,0,1574,0,No
9,7,14,7,0,4,3,3,-1,0,5,10,17,1574,0,No
16,17,22,0,2,9,0,0,0,0,0,0,0,1329,0,No
5,2,7,0,0,4,0,0,0,0,0,0,0,1574,0,No
5,10,11,0,0,4,0,0,0,0,0,0,0,1574,0,No
4,0,4,96,0,1,48,48,0,0,5,19,136,33,0,No
7,0,11,168,0,1,84,84,0,0,5,19,136,33,0,No
3,0,3,78,0,1,39,39,0,0,5,19,136,33,0,No
7,0,8,0,1,1,0,0,0,0,0,0,0,264,0,No
3,0,3,84,0,1,42,42,0,0,5,19,136,33,0,No
0,0,0,0,0,0,0,0,0,0,0,0,0,0,0,No
2,2,2,0,0,4,0,0,0,0,0,0,0,1556,0,No
1,2,2,0,0,5,0,0,0,0,0,0,0,1585,0,No
1,4,6,0,0,6,0,0,0,0,0,0,0,1585,0,No
1,3,2,0,1,5,0,0,0,0,0,0,0,1556,0,No
0,1,0,0,0,5,0,0,0,0,0,0,0,1585,0,No
0,0,0,0,0,3,0,0,0,0,0,0,0,1585,0,No
1,1,1,0,0,3,0,0,0,0,0,0,0,1556,0,No
0,0,0,0,0,4,0,0,0,0,0,0,0,1381,0,No
2,1,2,0,3,4,0,0,0,0,0,0,0,1585,0,No
0,0,0,0,0,4,0,0,0,0,0,0,0,1381,0,No
0,0,0,0,0,4,0,0,0,0,0,0,0,1381,0,No
0,0,0,0,0,4,0,0,0,0,0,0,0,1381,0,No
1,1,2,0,0,4,0,0,0,0,0,0,0,1381,0,No
0,0,0,0,0,4,0,0,0,0,0,0,0,1381,0,No
4,1,7,0,2,5,0,0,0,0,0,0,0,1381,0,No
0,0,0,0,0,4,0,0,0,0,0,0,0,1146,0,No
1,3,5,0,2,5,0,0,0,0,0,0,0,1042,0,No
0,0,0,0,0,4,0,0,0,0,0,0,0,1381,0,No
0,0,0,0,0,4,0,0,0,0,0,0,0,1146,0,No
0,0,0,0,0,4,0,0,0,0,0,0,0,1146,0,No
0,0,0,0,0,4,0,0,0,0,0,0,0,1146,0,No
0,0,0,0,0,4,0,0,0,0,0,0,0,1381,0,No
0,0,0,0,1,4,0,0,0,0,0,0,0,1381,0,No
2,15,18,0,1,1,0,0,0,0,0,0,0,352,0,No
1,3,8,0,2,5,0,0,0,0,0,0,0,1381,0,No
0,0,0,0,0,4,0,0,0,0,0,0,0,1381,0,No
1,2,3,0,2,3,0,0,0,0,0,0,0,682,0,No
0,0,0,0,0,5,0,0,0,0,0,0,0,1381,0,No
3,14,24,60,2,8,29,29,-2,0,3,23,42,1052,0,Yes
1,3,24,0,2,7,0,0,0,0,0,0,0,1045,0,No
0,0,0,0,0,4,0,0,0,0,0,0,0,1546,0,No
12,3,61,188,0,8,97,97,6,6,3,23,42,1102,0,No
0,0,0,0,0,4,0,0,0,0,0,0,0,1546,0,No
0,0,0,0,0,5,0,0,0,0,0,0,0,1546,0,No
1,1,1,0,1,6,0,0,0,0,0,0,0,1045,0,No
18,4,18,0,0,4,0,0,0,0,0,0,0,598,0,No
4,3,4,0,0,4,0,0,0,0,0,0,0,629,0,No
2,2,2,0,0,5,0,0,0,0,0,0,0,1546,0,No
17,1,44,0,1,5,0,0,0,0,0,0,0,1500,0,No
1,0,1,0,1,4,0,0,0,0,0,0,0,1585,0,No
3,3,3,0,0,4,0,0,0,0,0,0,0,937,0,No
4,2,4,0,2,2,0,0,0,0,0,0,0,685,0,No
0,0,0,0,0,6,0,0,0,0,0,0,0,1546,0,No
4,5,10,0,0,5,0,0,0,0,0,0,0,663,0,No
2,7,11,0,4,4,0,0,0,0,0,0,0,641,0,No
0,0,0,0,0,3,0,0,0,0,0,0,0,1546,0,No
1,0,1,0,1,3,0,0,0,0,0,0,0,1546,0,No
1,0,1,0,1,3,0,0,0,0,0,0,0,1546,0,No
0,0,0,0,0,3,0,0,0,0,0,0,0,1546,0,No
4,1,5,0,1,4,0,0,0,0,0,0,0,1146,0,No
0,0,0,0,0,4,0,0,0,0,0,0,0,1146,0,No
2,1,2,0,0,5,0,0,0,0,0,0,0,940,0,No
0,1,0,0,0,4,0,0,0,0,0,0,0,1146,0,No
2,2,11,0,1,3,0,0,0,0,0,0,0,915,0,No
10,0,10,0,0,1,0,0,0,0,0,0,0,311,0,No
1,0,4,0,0,0,0,0,0,0,0,0,0,0,0,No
2,1,4,0,1,5,0,0,0,0,0,0,0,1585,0,No
6,1,6,0,0,5,0,0,0,0,0,0,0,1585,0,No
7,4,7,2,0,7,0,0,-2,0,3,23,42,1546,0,No
3,4,4,0,0,4,0,0,0,0,0,0,0,1364,0,No
0,0,0,0,0,7,0,0,0,0,0,0,0,1585,0,No
1,0,1,0,0,4,0,0,0,0,0,0,0,1585,0,No
0,0,0,0,1,2,0,0,0,0,0,0,0,306,0,No
7,11,10,0,0,2,0,0,0,0,0,0,0,411,0,No
11,6,12,0,2,6,0,0,0,0,0,0,0,1035,0,No
2,2,2,0,0,4,0,0,0,0,0,0,0,1546,0,No
3,11,5,0,0,4,0,0,0,0,0,0,0,1510,0,No
5,11,36,0,0,6,0,0,0,0,0,0,0,1525,0,No
2,2,2,0,0,5,0,0,0,0,0,0,0,1546,0,No
3,3,3,0,1,5,0,0,0,0,0,0,0,1042,0,No
4,18,36,0,2,5,0,0,0,0,0,0,0,1101,0,Yes
13,24,57,0,4,6,0,0,0,0,0,0,0,1523,0,No
12,14,20,0,3,5,0,0,0,0,0,0,0,1537,0,No
1,2,1,0,0,0,0,0,0,0,0,0,0,0,0,No
5,10,29,0,0,1,0,0,0,0,0,0,0,75,0,No
7,0,9,0,0,4,0,0,0,0,0,0,0,1552,0,No
2,2,4,0,0,4,0,0,0,0,0,0,0,734,0,No
1,8,10,0,2,4,0,0,0,0,0,0,0,1361,0,No
1,1,4,0,0,1,0,0,0,0,0,0,0,279,0,No
8,7,8,182,1,4,91,91,0,0,5,19,136,597,0,No
13,10,15,266,1,5,133,133,0,0,5,19,136,596,0,No
2,4,2,90,0,5,45,45,0,0,5,19,136,1585,0,No
5,4,5,0,1,3,0,0,0,0,0,0,0,591,0,No
7,10,19,250,2,4,125,125,0,0,5,19,136,592,0,No
14,11,15,0,2,3,0,0,0,0,0,0,0,591,0,No
17,13,31,444,4,4,222,222,0,0,5,19,136,590,0,No
5,6,5,154,0,4,77,77,0,0,5,19,136,593,0,No
16,19,21,316,2,5,158,158,0,0,5,19,136,586,0,No
5,7,6,4,1,4,2,2,0,0,3,23,42,591,0,No
18,17,32,4,5,6,2,2,0,0,3,23,42,587,0,No
6,4,6,0,1,7,0,0,0,0,0,0,0,1585,0,No
6,5,16,232,1,3,116,116,0,0,5,19,136,584,0,No
1,1,1,0,1,6,0,0,0,0,0,0,0,1546,0,No
10,3,10,0,0,2,0,0,0,0,0,0,0,73,0,No
15,3,20,0,0,6,0,0,0,0,0,0,0,1038,0,No
2,12,2,0,0,2,0,0,0,0,0,0,0,243,0,No
7,28,29,10,3,5,6,6,2,2,5,10,17,622,0,No
10,10,15,0,0,1,0,0,0,0,0,0,0,73,0,No
10,10,15,0,0,1,0,0,0,0,0,0,0,73,0,No
3,0,3,0,0,3,0,0,0,0,0,0,0,1585,0,No
1,0,16,0,0,1,0,0,0,0,0,0,0,67,0,No
13,1,16,0,2,1,0,0,0,0,0,0,0,556,0,No
1,0,2,0,0,4,0,0,0,0,0,0,0,1585,0,No
0,0,0,0,0,5,0,0,0,0,0,0,0,1546,0,No
2,0,4,0,0,1,0,0,0,0,0,0,0,67,0,No
8,0,10,42,0,1,33,33,24,24,2,7,11,34,0,No
1,0,7,0,0,1,0,0,0,0,0,0,0,67,0,No
1,0,5,0,1,1,0,0,0,0,0,0,0,529,0,No
7,0,7,92,0,1,88,86,84,86,7,17,28,34,0,No
5,1,14,3,1,2,2,2,1,1,5,10,17,571,0,No
6,1,6,0,1,3,0,0,0,0,0,0,0,571,0,No
7,0,8,0,0,4,0,0,0,0,0,0,0,1585,0,No
2,0,4,0,0,4,0,0,0,0,0,0,0,1585,0,No
2,0,2,0,0,5,0,0,0,0,0,0,0,1546,0,No
14,0,18,0,1,5,0,0,0,0,0,0,0,969,0,No
9,3,9,0,2,5,0,0,0,0,0,0,0,663,0,No
0,0,0,0,1,6,0,0,0,0,0,0,0,1546,0,No
0,1,0,0,1,5,0,0,0,0,0,0,0,1146,0,No
3,0,3,0,1,6,0,0,0,0,0,0,0,1546,0,No
9,1,9,0,1,4,0,0,0,0,0,0,0,1035,0,Yes
0,0,0,0,0,3,0,0,0,0,0,0,0,1546,0,No
5,9,5,0,0,4,0,0,0,0,0,0,0,663,0,No
12,11,12,0,1,4,0,0,0,0,0,0,0,663,0,No
4,7,4,0,0,3,0,0,0,0,0,0,0,663,0,No
15,9,15,4,1,9,2,2,0,0,3,23,42,1053,0,No
16,11,22,10,6,8,5,5,0,0,3,23,42,1070,0,No
1,1,1,0,0,3,0,0,0,0,0,0,0,1146,0,No
1,0,1,0,0,3,0,0,0,0,0,0,0,1146,0,No
4,0,4,0,0,3,0,0,0,0,0,0,0,1146,0,No
1,1,1,0,1,4,0,0,0,0,0,0,0,1146,0,No
1,2,2,0,1,4,0,0,0,0,0,0,0,1059,0,No
1,3,1,0,0,3,0,0,0,0,0,0,0,1059,0,No
1,5,3,0,0,5,0,0,0,0,0,0,0,1059,0,No
3,0,3,29,1,1,22,20,15,15,2,10,16,68,0,No
1,0,2,0,0,1,0,0,0,0,0,0,0,68,0,No
18,9,20,11,1,1,11,11,11,11,4,10,35,378,0,No
2,0,4,0,0,1,0,0,0,0,0,0,0,437,0,No
3,4,3,0,0,4,0,0,0,0,0,0,0,1610,0,No
7,1,14,0,0,1,0,0,0,0,0,0,0,58,0,No
11,1,13,0,0,1,0,0,0,0,0,0,0,125,0,No
0,0,0,0,0,5,0,0,0,0,0,0,0,1171,0,No
0,1,0,0,0,4,0,0,0,0,0,0,0,1171,0,No
0,0,0,0,0,4,0,0,0,0,0,0,0,1171,0,No
9,1,14,0,0,5,0,0,0,0,0,0,0,1526,0,No
3,0,5,0,0,5,0,0,0,0,0,0,0,1610,0,No
5,1,6,0,0,4,0,0,0,0,0,0,0,1526,0,No
3,0,4,0,0,5,0,0,0,0,0,0,0,1610,0,No
2,1,2,0,1,4,0,0,0,0,0,0,0,1610,0,No
5,2,5,0,0,2,0,0,0,0,0,0,0,277,0,No
46,0,65,0,1,4,0,0,0,0,0,0,0,1546,0,No
9,1,9,0,0,2,0,0,0,0,0,0,0,638,0,No
13,0,20,24,0,5,23,23,22,22,3,26,61,1526,0,No
0,1,0,0,0,0,0,0,0,0,0,0,0,0,0,No
0,0,0,0,0,0,0,0,0,0,0,0,0,0,0,No
2,1,2,0,0,5,0,0,0,0,0,0,0,1171,0,No
1,0,1,0,0,4,0,0,0,0,0,0,0,965,0,No
6,2,6,0,0,5,0,0,0,0,0,0,0,965,0,No
11,1,13,0,0,3,0,0,0,0,0,0,0,940,0,No
6,2,6,0,0,5,0,0,0,0,0,0,0,965,0,No
0,1,0,0,0,0,0,0,0,0,0,0,0,0,0,No
3,1,3,0,0,0,0,0,0,0,0,0,0,0,0,No
5,2,5,0,0,1,0,0,0,0,0,0,0,286,0,No
11,1,11,0,0,0,0,0,0,0,0,0,0,0,0,No
0,1,0,0,0,1,0,0,0,0,0,0,0,272,0,No
7,0,7,0,0,1,0,0,0,0,0,0,0,290,0,No
2,0,2,0,0,3,0,0,0,0,0,0,0,1571,0,No
2,0,4,0,0,0,0,0,0,0,0,0,0,0,0,No
11,0,11,0,1,2,0,0,0,0,0,0,0,290,0,No
9,0,9,0,1,2,0,0,0,0,0,0,0,290,0,No
2,0,2,0,1,2,0,0,0,0,0,0,0,290,0,No
7,4,7,0,1,3,0,0,0,0,0,0,0,637,0,No
13,7,13,8,1,3,4,4,0,0,3,26,61,637,0,No
2,1,2,0,0,4,0,0,0,0,0,0,0,1610,0,No
5,1,5,0,0,4,0,0,0,0,0,0,0,632,0,No
7,3,7,0,3,3,0,0,0,0,0,0,0,633,0,No
13,5,13,0,2,3,0,0,0,0,0,0,0,636,0,No
11,8,11,0,0,3,0,0,0,0,0,0,0,636,0,No
17,6,17,0,2,4,0,0,0,0,0,0,0,638,0,No
5,3,5,0,0,3,0,0,0,0,0,0,0,632,0,No
6,1,6,66,0,4,39,39,12,12,3,26,61,632,0,No
16,11,16,0,3,4,0,0,0,0,0,0,0,633,0,No
7,2,7,31,1,7,29,29,27,27,3,26,61,1610,0,No
18,10,18,0,3,6,0,0,0,0,0,0,0,638,0,No
4,2,4,0,1,4,0,0,0,0,0,0,0,637,0,No
6,0,8,0,0,7,0,0,0,0,0,0,0,1577,0,No
10,1,14,0,0,4,0,0,0,0,0,0,0,1448,0,No
8,2,8,0,0,4,0,0,0,0,0,0,0,1610,0,No
2,1,2,0,0,4,0,0,0,0,0,0,0,1610,0,No
3,0,7,0,0,5,0,0,0,0,0,0,0,1610,0,No
15,2,15,0,0,5,0,0,0,0,0,0,0,1171,0,No
9,1,11,0,0,2,0,0,0,0,0,0,0,434,0,No
9,1,13,0,0,6,0,0,0,0,0,0,0,1448,0,No
3,2,3,0,0,4,0,0,0,0,0,0,0,1610,0,No
5,1,5,0,0,5,0,0,0,0,0,0,0,1610,0,No
0,0,0,0,0,1,0,0,0,0,0,0,0,272,0,No
11,2,11,0,0,4,0,0,0,0,0,0,0,1548,0,No
19,3,21,0,0,7,0,0,0,0,0,0,0,1550,0,No
2,0,3,0,1,6,0,0,0,0,0,0,0,986,0,No
10,1,10,2,0,1,2,2,2,2,3,26,61,310,0,No
2,0,2,0,0,4,0,0,0,0,0,0,0,1567,0,No
7,2,8,0,2,2,0,0,0,0,0,0,0,331,0,No
4,2,4,0,0,4,0,0,0,0,0,0,0,1610,0,No
16,3,16,0,0,6,0,0,0,0,0,0,0,1555,0,No
4,0,4,0,0,5,0,0,0,0,0,0,0,1610,0,No
26,3,26,0,0,7,0,0,0,0,0,0,0,1067,0,No
13,1,13,0,0,6,0,0,0,0,0,0,0,1060,0,No
2,2,2,0,0,4,0,0,0,0,0,0,0,1610,0,No
18,3,18,0,0,4,0,0,0,0,0,0,0,1448,0,No
4,0,4,0,0,2,0,0,0,0,0,0,0,272,0,No
2,0,2,0,0,4,0,0,0,0,0,0,0,1171,0,No
18,2,26,0,0,5,0,0,0,0,0,0,0,965,0,No
40,3,40,0,1,5,0,0,0,0,0,0,0,1546,0,No
35,0,39,0,1,5,0,0,0,0,0,0,0,1539,0,No
12,0,16,0,0,5,0,0,0,0,0,0,0,1610,0,No
24,2,25,0,0,6,0,0,0,0,0,0,0,1610,0,No
4,1,4,29,0,4,14,14,-1,0,3,26,61,1610,0,No
2,2,2,0,0,4,0,0,0,0,0,0,0,1610,0,No
6,0,6,0,0,5,0,0,0,0,0,0,0,1171,0,No
2,0,2,0,0,4,0,0,0,0,0,0,0,1448,0,No
2,0,2,0,0,5,0,0,0,0,0,0,0,1610,0,No
17,2,17,0,0,4,0,0,0,0,0,0,0,1073,0,No
0,1,0,0,0,0,0,0,0,0,0,0,0,0,0,No
18,1,22,0,0,5,0,0,0,0,0,0,0,1571,0,No
0,0,0,0,0,5,0,0,0,0,0,0,0,1571,0,No
7,4,10,0,2,3,0,0,0,0,0,0,0,924,0,No
2,0,2,0,0,6,0,0,0,0,0,0,0,1571,0,No
1,0,1,0,0,4,0,0,0,0,0,0,0,1571,0,No
0,0,0,0,0,5,0,0,0,0,0,0,0,1571,0,No
2,0,2,0,2,3,0,0,0,0,0,0,0,897,0,No
2,0,2,0,0,4,0,0,0,0,0,0,0,1571,0,No
1,0,1,0,0,5,0,0,0,0,0,0,0,1571,0,No
0,0,0,0,1,3,0,0,0,0,0,0,0,591,0,No
0,0,0,0,0,5,0,0,0,0,0,0,0,1571,0,No
46,1,50,0,0,7,0,0,0,0,0,0,0,1140,0,No
0,0,0,0,0,4,0,0,0,0,0,0,0,1571,0,No
0,0,0,5,0,5,5,5,5,5,3,26,61,1171,0,No
0,0,0,0,0,4,0,0,0,0,0,0,0,1571,0,No
0,0,0,0,0,5,0,0,0,0,0,0,0,1571,0,No
0,0,0,0,0,5,0,0,0,0,0,0,0,1571,0,No
0,0,0,0,1,6,0,0,0,0,0,0,0,1571,0,No
1,0,2,0,0,5,0,0,0,0,0,0,0,1571,0,No
8,2,9,0,0,8,0,0,0,0,0,0,0,1571,0,No
0,0,0,0,0,4,0,0,0,0,0,0,0,1571,0,No
0,0,0,0,0,5,0,0,0,0,0,0,0,1571,0,No
0,0,0,0,0,4,0,0,0,0,0,0,0,1171,0,No
2,0,2,0,0,0,0,0,0,0,0,0,0,0,0,No
0,1,0,0,0,4,0,0,0,0,0,0,0,1571,0,No
10,13,70,23,1,7,18,10,13,8,8,20,56,1053,0,No
0,0,0,0,0,1,0,0,0,0,0,0,0,272,0,No
0,0,0,0,0,1,0,0,0,0,0,0,0,272,0,No
0,0,0,0,0,1,0,0,0,0,0,0,0,272,0,No
0,0,0,0,0,1,0,0,0,0,0,0,0,272,0,No
0,0,0,0,0,1,0,0,0,0,0,0,0,272,0,No
0,0,0,0,0,2,0,0,0,0,0,0,0,272,0,No
0,0,0,0,0,1,0,0,0,0,0,0,0,272,0,No
0,0,0,0,0,1,0,0,0,0,0,0,0,272,0,No
0,0,0,0,1,6,0,0,0,0,0,0,0,1571,0,No
0,0,0,0,0,1,0,0,0,0,0,0,0,272,0,No
0,0,0,0,0,1,0,0,0,0,0,0,0,272,0,No
0,1,0,0,0,1,0,0,0,0,0,0,0,272,0,No
14,20,27,0,1,6,0,0,0,0,0,0,0,1571,0,Yes
22,3,28,7,3,8,7,7,7,7,4,10,35,1571,0,No
1,0,1,0,0,1,0,0,0,0,0,0,0,360,0,No
3,0,3,0,0,2,0,0,0,0,0,0,0,772,0,No
0,0,0,0,0,3,0,0,0,0,0,0,0,503,0,No
0,0,0,0,0,2,0,0,0,0,0,0,0,503,0,No
0,0,0,2,0,4,2,2,2,2,4,10,21,1571,0,No
6,0,9,0,0,4,0,0,0,0,0,0,0,952,0,No
2,0,2,0,0,5,0,0,0,0,0,0,0,1171,0,No
1,6,3,0,1,4,0,0,0,0,0,0,0,1240,0,No
2,0,3,0,0,3,0,0,0,0,0,0,0,1610,0,No
2,0,7,0,1,5,0,0,0,0,0,0,0,1290,0,No
2,0,7,0,0,6,0,0,0,0,0,0,0,1399,0,No
5,1,5,0,0,1,0,0,0,0,0,0,0,337,0,No
3,2,3,0,0,4,0,0,0,0,0,0,0,1610,0,No
12,3,12,0,0,4,0,0,0,0,0,0,0,1610,0,No
2,0,6,0,0,1,0,0,0,0,0,0,0,94,0,No
1,0,1,0,1,7,0,0,0,0,0,0,0,1610,0,No
2,0,4,0,0,1,0,0,0,0,0,0,0,609,0,No
4,12,4,0,1,6,0,0,0,0,0,0,0,1571,0,Yes
2,2,2,0,0,5,0,0,0,0,0,0,0,1240,0,No
0,0,0,0,0,2,0,0,0,0,0,0,0,360,0,No
8,8,9,0,1,8,0,0,0,0,0,0,0,1170,0,No
0,0,0,0,0,4,0,0,0,0,0,0,0,1571,0,No
0,1,0,0,1,5,0,0,0,0,0,0,0,1571,0,No
0,0,0,0,1,5,0,0,0,0,0,0,0,1571,0,No
4,2,4,0,0,3,0,0,0,0,0,0,0,569,0,No
3,5,13,0,0,2,0,0,0,0,0,0,0,575,0,No
0,0,0,0,1,3,0,0,0,0,0,0,0,1571,0,No
0,0,0,0,0,3,0,0,0,0,0,0,0,1171,0,No
0,0,0,0,0,1,0,0,0,0,0,0,0,440,0,No
0,0,0,0,0,3,0,0,0,0,0,0,0,1571,0,No
0,1,0,0,0,5,0,0,0,0,0,0,0,1569,0,No
0,3,0,0,1,6,0,0,0,0,0,0,0,1060,0,No
0,2,0,0,1,4,0,0,0,0,0,0,0,1240,0,No
5,8,8,0,0,2,0,0,0,0,0,0,0,104,0,No
3,3,3,0,0,4,0,0,0,0,0,0,0,952,0,No
1,2,1,0,0,5,0,0,0,0,0,0,0,1240,0,No
2,2,3,0,0,7,0,0,0,0,0,0,0,1170,0,No
2,5,3,0,1,8,0,0,0,0,0,0,0,1170,0,No
2,4,4,1,0,6,0,0,-1,0,1,2,7,1240,0,No
2,2,2,0,0,5,0,0,0,0,0,0,0,1240,0,No
2,1,2,0,0,5,0,0,0,0,0,0,0,1240,0,No
2,3,2,0,0,6,0,0,0,0,0,0,0,1571,0,No
6,10,12,0,0,1,0,0,0,0,0,0,0,104,0,No
0,3,0,0,1,3,0,0,0,0,0,0,0,503,0,No
0,3,0,0,0,6,0,0,0,0,0,0,0,965,0,No
10,6,10,0,0,1,0,0,0,0,0,0,0,360,0,No
1,0,1,0,0,1,0,0,0,0,0,0,0,360,0,No
2,0,2,0,0,4,0,0,0,0,0,0,0,1571,0,No
11,13,33,0,6,7,0,0,0,0,0,0,0,1155,0,No
3,1,7,0,1,2,0,0,0,0,0,0,0,149,0,No
13,0,13,0,0,0,0,0,0,0,0,0,0,0,0,No
3,5,4,0,2,5,0,0,0,0,0,0,0,703,0,No
10,1,14,0,2,2,0,0,0,0,0,0,0,331,0,No
0,3,0,0,0,6,0,0,0,0,0,0,0,965,0,No
2,2,5,0,0,1,0,0,0,0,0,0,0,94,0,No
1,1,2,0,0,1,0,0,0,0,0,0,0,94,0,No
2,1,2,2,1,1,2,2,2,2,1,2,2,314,0,No
1,1,5,0,0,1,0,0,0,0,0,0,0,314,0,No
3,2,3,0,2,6,0,0,0,0,0,0,0,1070,0,No
2,2,2,0,1,5,0,0,0,0,0,0,0,1367,0,No
5,3,7,0,1,5,0,0,0,0,0,0,0,1610,0,No
6,5,6,9,0,6,9,9,9,9,4,10,35,1519,0,Yes
2,0,2,0,0,4,0,0,0,0,0,0,0,1571,0,No
8,7,11,0,1,6,0,0,0,0,0,0,0,1519,0,No
5,2,5,17,1,6,4,4,-9,0,4,10,35,1060,0,No
11,5,13,0,2,6,0,0,0,0,0,0,0,952,0,No
8,11,12,0,0,6,0,0,0,0,0,0,0,1540,0,No
17,14,17,2,3,7,1,1,0,0,1,1,1,1540,0,Yes
20,11,35,0,2,8,0,0,0,0,0,0,0,1610,0,No
5,2,5,51,0,1,51,51,51,51,4,10,35,10,0,No
18,15,26,0,2,8,0,0,0,0,0,0,0,1435,0,No
18,17,19,0,3,8,0,0,0,0,0,0,0,1561,0,No
4,0,4,0,0,1,0,0,0,0,0,0,0,952,0,No
3,1,5,0,1,2,0,0,0,0,0,0,0,591,0,No
3,1,5,0,1,4,0,0,0,0,0,0,0,1290,0,No
2,0,2,0,1,4,0,0,0,0,0,0,0,1290,0,No
3,2,6,0,0,2,0,0,0,0,0,0,0,569,0,No
1,2,10,0,1,4,0,0,0,0,0,0,0,1057,0,No
0,0,0,0,0,4,0,0,0,0,0,0,0,1571,0,No
0,1,0,0,0,4,0,0,0,0,0,0,0,1571,0,No
3,0,3,0,0,5,0,0,0,0,0,0,0,1060,0,No
1,0,2,0,1,4,0,0,0,0,0,0,0,1571,0,No
1,0,2,0,1,5,0,0,0,0,0,0,0,1060,0,No
1,1,2,0,0,4,0,0,0,0,0,0,0,1060,0,No
1,2,3,0,0,4,0,0,0,0,0,0,0,1060,0,No
1,0,1,0,0,4,0,0,0,0,0,0,0,1571,0,No
32,3,82,0,2,5,0,0,0,0,0,0,0,979,0,No
8,1,25,0,2,8,0,0,0,0,0,0,0,1519,0,No
2,1,2,0,0,3,0,0,0,0,0,0,0,1329,0,No
3,1,3,0,1,5,0,0,0,0,0,0,0,1127,0,No
2,1,3,0,1,5,0,0,0,0,0,0,0,1519,0,No
1,0,1,0,0,4,0,0,0,0,0,0,0,1571,0,No
6,1,28,0,1,7,0,0,0,0,0,0,0,1127,0,No
20,0,34,0,4,7,0,0,0,0,0,0,0,1127,0,No
0,0,0,0,0,3,0,0,0,0,0,0,0,1571,0,No
5,1,9,0,0,1,0,0,0,0,0,0,0,129,0,No
1,0,1,0,2,1,0,0,0,0,0,0,0,601,0,No
1,0,1,0,0,5,0,0,0,0,0,0,0,1571,0,No
1,1,5,0,0,1,0,0,0,0,0,0,0,94,0,No
2,1,2,0,0,1,0,0,0,0,0,0,0,94,0,No
1,0,1,0,0,5,0,0,0,0,0,0,0,1571,0,No
1,0,1,0,0,5,0,0,0,0,0,0,0,1171,0,No
6,4,7,0,0,4,0,0,0,0,0,0,0,1056,0,No
1,1,1,0,0,4,0,0,0,0,0,0,0,1171,0,No
2,0,2,0,0,3,0,0,0,0,0,0,0,562,0,No
2,0,4,0,0,2,0,0,0,0,0,0,0,93,0,No
3,2,13,0,0,1,0,0,0,0,0,0,0,310,0,No
1,5,10,0,1,5,0,0,0,0,0,0,0,973,0,No
1,2,1,0,1,6,0,0,0,0,0,0,0,1226,0,No
2,1,2,0,1,5,0,0,0,0,0,0,0,1171,0,No
1,2,2,0,0,2,0,0,0,0,0,0,0,434,0,No
11,3,16,0,0,6,0,0,0,0,0,0,0,1564,0,No
5,1,5,0,1,3,0,0,0,0,0,0,0,1610,0,No
2,0,2,0,0,3,0,0,0,0,0,0,0,1571,0,No
20,7,68,0,2,5,0,0,0,0,0,0,0,1599,0,No
19,0,37,0,1,4,0,0,0,0,0,0,0,1564,0,No
5,1,5,0,2,6,0,0,0,0,0,0,0,1584,0,No
8,0,13,0,0,5,0,0,0,0,0,0,0,965,0,No
17,2,24,0,0,5,0,0,0,0,0,0,0,1555,0,No
2,0,2,0,2,5,0,0,0,0,0,0,0,1597,0,No
6,0,8,0,0,1,0,0,0,0,0,0,0,105,0,No
16,3,16,0,0,7,0,0,0,0,0,0,0,1171,0,No
8,0,11,0,0,5,0,0,0,0,0,0,0,1245,0,No
5,1,7,0,0,5,0,0,0,0,0,0,0,1564,0,No
25,4,33,0,0,5,0,0,0,0,0,0,0,1575,0,No
10,0,10,0,0,1,0,0,0,0,0,0,0,310,0,No
4,0,4,0,0,4,0,0,0,0,0,0,0,1599,0,No
41,7,47,0,0,6,0,0,0,0,0,0,0,1555,0,No
31,3,39,0,2,6,0,0,0,0,0,0,0,1067,0,No
16,1,17,0,0,5,0,0,0,0,0,0,0,1060,0,No
0,1,0,0,0,4,0,0,0,0,0,0,0,1564,0,No
6,4,6,0,2,5,0,0,0,0,0,0,0,1140,0,No
18,5,19,0,0,5,0,0,0,0,0,0,0,1448,0,No
0,1,0,0,0,5,0,0,0,0,0,0,0,1564,0,No
4,1,4,0,0,4,0,0,0,0,0,0,0,1571,0,No
6,1,8,0,0,4,0,0,0,0,0,0,0,965,0,No
5,2,7,0,0,4,0,0,0,0,0,0,0,965,0,No
8,1,8,0,0,5,0,0,0,0,0,0,0,1171,0,No
3,0,3,29,0,4,18,18,7,7,3,26,61,1564,0,No
0,1,0,0,0,5,0,0,0,0,0,0,0,1564,0,No
6,4,8,0,1,7,0,0,0,0,0,0,0,1171,0,No
6,2,6,0,0,4,0,0,0,0,0,0,0,1599,0,No
5,0,10,0,0,4,0,0,0,0,0,0,0,1448,0,No
4,0,4,0,0,3,0,0,0,0,0,0,0,1448,0,No
10,4,14,0,0,5,0,0,0,0,0,0,0,1564,0,No
5,3,7,0,0,5,0,0,0,0,0,0,0,1406,0,No
3,2,4,0,0,5,0,0,0,0,0,0,0,1610,0,No
0,1,0,0,1,4,0,0,0,0,0,0,0,1564,0,No
14,4,18,0,0,1,0,0,0,0,0,0,0,100,0,No
11,4,16,0,0,5,0,0,0,0,0,0,0,1564,0,Yes
4,2,4,0,0,4,0,0,0,0,0,0,0,1564,0,No
5,3,7,0,0,5,0,0,0,0,0,0,0,1406,0,No
3,2,4,0,0,5,0,0,0,0,0,0,0,1610,0,No
5,3,7,0,0,5,0,0,0,0,0,0,0,1564,0,No
4,2,4,0,0,4,0,0,0,0,0,0,0,1564,0,No
0,1,0,0,0,4,0,0,0,0,0,0,0,1564,0,No
0,1,0,0,0,4,0,0,0,0,0,0,0,1564,0,No
5,3,7,0,1,7,0,0,0,0,0,0,0,1564,0,No
4,2,4,0,0,4,0,0,0,0,0,0,0,1564,0,No
0,1,0,0,0,4,0,0,0,0,0,0,0,1564,0,No
18,6,43,0,0,6,0,0,0,0,0,0,0,1534,0,No
0,0,0,0,0,3,0,0,0,0,0,0,0,1571,0,No
11,4,16,0,0,5,0,0,0,0,0,0,0,1564,0,Yes
4,1,4,0,0,5,0,0,0,0,0,0,0,1610,0,No
5,3,7,0,0,5,0,0,0,0,0,0,0,1406,0,No
3,2,4,0,0,5,0,0,0,0,0,0,0,1610,0,No
5,3,7,0,0,5,0,0,0,0,0,0,0,1564,0,No
4,1,4,0,0,5,0,0,0,0,0,0,0,1610,0,No
0,1,0,0,0,4,0,0,0,0,0,0,0,1564,0,No
3,2,5,0,0,5,0,0,0,0,0,0,0,1610,0,No
0,1,0,0,0,4,0,0,0,0,0,0,0,1564,0,No
5,3,7,0,0,6,0,0,0,0,0,0,0,1564,0,No
4,1,4,0,0,5,0,0,0,0,0,0,0,1610,0,No
0,1,0,0,0,4,0,0,0,0,0,0,0,1564,0,No
51,18,95,72,1,5,29,29,-14,0,1,4,4,1564,0,No
10,4,14,0,0,5,0,0,0,0,0,0,0,1564,0,Yes
5,3,7,0,0,5,0,0,0,0,0,0,0,1406,0,No
3,2,4,0,0,5,0,0,0,0,0,0,0,1610,0,No
4,3,5,0,0,5,0,0,0,0,0,0,0,1564,0,No
0,1,0,0,1,4,0,0,0,0,0,0,0,1564,0,No
3,2,5,0,0,5,0,0,0,0,0,0,0,1610,0,No
0,1,0,0,1,4,0,0,0,0,0,0,0,1564,0,No
4,3,5,0,0,6,0,0,0,0,0,0,0,1564,0,No
0,1,0,0,1,4,0,0,0,0,0,0,0,1564,0,No
3,1,3,0,0,4,0,0,0,0,0,0,0,1610,0,No
4,2,4,0,0,4,0,0,0,0,0,0,0,1610,0,No
5,2,5,0,0,4,0,0,0,0,0,0,0,1610,0,No
5,2,5,0,0,4,0,0,0,0,0,0,0,1610,0,No
4,2,4,0,0,4,0,0,0,0,0,0,0,1610,0,No
2,1,2,0,0,5,0,0,0,0,0,0,0,1571,0,No
4,1,4,0,0,3,0,0,0,0,0,0,0,1571,0,No
5,2,5,0,0,4,0,0,0,0,0,0,0,1610,0,No
5,4,5,0,0,4,0,0,0,0,0,0,0,1610,0,No
6,3,6,0,0,4,0,0,0,0,0,0,0,1610,0,No
5,3,5,0,0,4,0,0,0,0,0,0,0,1610,0,No
5,4,5,0,0,4,0,0,0,0,0,0,0,1610,0,No
0,0,0,0,0,5,0,0,0,0,0,0,0,1571,0,No
4,2,4,0,0,4,0,0,0,0,0,0,0,1171,0,No
9,6,9,0,1,5,0,0,0,0,0,0,0,1571,0,No
7,3,7,0,1,4,0,0,0,0,0,0,0,1610,0,No
7,3,7,0,0,4,0,0,0,0,0,0,0,1610,0,No
8,6,8,0,0,4,0,0,0,0,0,0,0,1610,0,No
22,9,22,0,1,6,0,0,0,0,0,0,0,1610,0,No
5,4,5,0,0,4,0,0,0,0,0,0,0,1610,0,No
4,2,4,12,0,4,6,6,0,0,3,26,61,1610,0,No
4,4,4,0,0,6,0,0,0,0,0,0,0,1610,0,No
5,4,5,0,1,6,0,0,0,0,0,0,0,1610,0,No
10,4,10,0,1,4,0,0,0,0,0,0,0,1610,0,No
8,3,8,0,0,4,0,0,0,0,0,0,0,1610,0,No
15,6,15,6,1,6,6,6,6,6,3,26,61,1610,0,No
5,2,5,0,0,4,0,0,0,0,0,0,0,1610,0,No
5,4,5,0,0,4,0,0,0,0,0,0,0,1610,0,No
3,2,5,0,0,4,0,0,0,0,0,0,0,1599,0,No
4,3,6,0,0,1,0,0,0,0,0,0,0,357,0,No
5,2,7,0,0,4,0,0,0,0,0,0,0,1599,0,Yes
5,7,8,0,0,4,0,0,0,0,0,0,0,1599,0,Yes
4,6,9,0,0,5,0,0,0,0,0,0,0,1599,0,No
5,2,7,0,0,4,0,0,0,0,0,0,0,1599,0,No
5,10,11,0,0,4,0,0,0,0,0,0,0,1599,0,No
6,5,9,0,0,4,0,0,0,0,0,0,0,1599,0,No
5,4,8,0,0,4,0,0,0,0,0,0,0,973,0,No
5,5,7,0,0,5,0,0,0,0,0,0,0,1534,0,No
4,3,4,0,0,4,0,0,0,0,0,0,0,1067,0,No
1,0,6,0,2,6,0,0,0,0,0,0,0,1610,0,No
9,9,27,0,0,5,0,0,0,0,0,0,0,1140,0,No
7,4,10,0,2,4,0,0,0,0,0,0,0,965,0,No
8,4,12,0,0,4,0,0,0,0,0,0,0,965,0,No
9,19,33,0,0,7,0,0,0,0,0,0,0,1555,0,No
30,36,89,0,2,7,0,0,0,0,0,0,0,1599,0,No
5,12,13,0,0,4,0,0,0,0,0,0,0,1599,0,No
4,5,6,70,0,1,70,70,70,70,3,26,61,13,0,No
11,8,22,0,2,5,0,0,0,0,0,0,0,1599,0,No
9,7,14,0,0,4,0,0,0,0,0,0,0,1599,0,No
18,18,25,30,2,9,28,28,26,26,3,26,61,1354,0,No
5,2,7,0,0,4,0,0,0,0,0,0,0,1599,0,No
5,10,11,0,0,4,0,0,0,0,0,0,0,1599,0,No
4,0,4,0,0,1,0,0,0,0,0,0,0,58,0,No
7,0,11,0,0,1,0,0,0,0,0,0,0,58,0,No
3,0,3,0,0,1,0,0,0,0,0,0,0,58,0,No
7,0,8,0,1,1,0,0,0,0,0,0,0,289,0,No
3,0,3,0,0,1,0,0,0,0,0,0,0,58,0,No
0,0,0,0,0,0,0,0,0,0,0,0,0,0,0,No
2,2,2,0,0,4,0,0,0,0,0,0,0,1581,0,No
1,2,2,0,0,5,0,0,0,0,0,0,0,1610,0,No
1,4,6,0,0,6,0,0,0,0,0,0,0,1610,0,No
1,3,2,0,1,5,0,0,0,0,0,0,0,1581,0,No
0,1,0,0,0,5,0,0,0,0,0,0,0,1610,0,No
0,0,0,0,0,3,0,0,0,0,0,0,0,1610,0,No
1,1,1,0,0,3,0,0,0,0,0,0,0,1581,0,No
0,0,0,0,0,4,0,0,0,0,0,0,0,1406,0,No
2,1,2,0,3,4,0,0,0,0,0,0,0,1610,0,No
0,0,0,0,0,4,0,0,0,0,0,0,0,1406,0,No
0,0,0,0,0,4,0,0,0,0,0,0,0,1406,0,No
0,0,0,0,0,4,0,0,0,0,0,0,0,1406,0,No
1,1,2,0,0,4,0,0,0,0,0,0,0,1406,0,No
0,0,0,0,0,4,0,0,0,0,0,0,0,1406,0,No
4,1,7,0,2,5,0,0,0,0,0,0,0,1406,0,No
0,0,0,0,0,4,0,0,0,0,0,0,0,1171,0,No
1,3,5,0,2,5,0,0,0,0,0,0,0,1067,0,No
0,0,0,0,0,4,0,0,0,0,0,0,0,1406,0,No
0,0,0,0,0,4,0,0,0,0,0,0,0,1171,0,No
0,0,0,0,0,4,0,0,0,0,0,0,0,1171,0,No
0,0,0,0,0,4,0,0,0,0,0,0,0,1171,0,No
0,0,0,0,0,4,0,0,0,0,0,0,0,1406,0,No
0,0,0,0,1,4,0,0,0,0,0,0,0,1406,0,No
2,15,18,0,1,1,0,0,0,0,0,0,0,377,0,No
1,3,8,0,2,5,0,0,0,0,0,0,0,1406,0,No
0,0,0,0,0,4,0,0,0,0,0,0,0,1406,0,No
1,2,3,0,2,3,0,0,0,0,0,0,0,707,0,No
0,0,0,0,0,5,0,0,0,0,0,0,0,1406,0,No
3,14,24,0,2,8,0,0,0,0,0,0,0,1077,0,Yes
1,3,24,0,2,7,0,0,0,0,0,0,0,1070,0,No
0,0,0,0,0,4,0,0,0,0,0,0,0,1571,0,No
12,3,61,0,0,8,0,0,0,0,0,0,0,1127,0,No
0,0,0,0,0,4,0,0,0,0,0,0,0,1571,0,No
0,0,0,0,0,5,0,0,0,0,0,0,0,1571,0,No
1,1,1,0,1,6,0,0,0,0,0,0,0,1070,0,No
18,4,18,0,0,4,0,0,0,0,0,0,0,623,0,No
4,3,4,0,0,4,0,0,0,0,0,0,0,654,0,No
2,2,2,0,0,5,0,0,0,0,0,0,0,1571,0,No
17,1,44,0,1,5,0,0,0,0,0,0,0,1525,0,No
1,0,1,0,1,4,0,0,0,0,0,0,0,1610,0,No
3,3,3,0,0,4,0,0,0,0,0,0,0,962,0,No
4,2,4,0,2,2,0,0,0,0,0,0,0,710,0,No
0,0,0,0,0,6,0,0,0,0,0,0,0,1571,0,No
4,5,10,0,0,5,0,0,0,0,0,0,0,688,0,No
2,7,11,0,4,4,0,0,0,0,0,0,0,666,0,No
0,0,0,0,0,3,0,0,0,0,0,0,0,1571,0,No
1,0,1,0,1,3,0,0,0,0,0,0,0,1571,0,No
1,0,1,0,1,3,0,0,0,0,0,0,0,1571,0,No
0,0,0,0,0,3,0,0,0,0,0,0,0,1571,0,No
4,1,5,0,1,4,0,0,0,0,0,0,0,1171,0,No
0,0,0,0,0,4,0,0,0,0,0,0,0,1171,0,No
2,1,2,0,0,5,0,0,0,0,0,0,0,965,0,No
0,1,0,0,0,4,0,0,0,0,0,0,0,1171,0,No
2,2,11,0,1,3,0,0,0,0,0,0,0,940,0,No
10,0,10,0,0,1,0,0,0,0,0,0,0,336,0,No
1,0,4,0,0,0,0,0,0,0,0,0,0,0,0,No
2,1,4,0,1,5,0,0,0,0,0,0,0,1610,0,No
6,1,6,0,0,5,0,0,0,0,0,0,0,1610,0,No
7,4,7,0,0,7,0,0,0,0,0,0,0,1571,0,No
3,4,4,0,0,4,0,0,0,0,0,0,0,1389,0,No
0,0,0,0,0,7,0,0,0,0,0,0,0,1610,0,No
1,0,1,0,0,4,0,0,0,0,0,0,0,1610,0,No
0,0,0,0,1,2,0,0,0,0,0,0,0,331,0,No
7,11,10,0,0,2,0,0,0,0,0,0,0,436,0,No
11,6,12,0,2,6,0,0,0,0,0,0,0,1060,0,No
2,2,2,0,0,4,0,0,0,0,0,0,0,1571,0,No
3,11,5,0,0,4,0,0,0,0,0,0,0,1535,0,No
5,11,36,0,0,6,0,0,0,0,0,0,0,1550,0,No
2,2,2,0,0,5,0,0,0,0,0,0,0,1571,0,No
3,3,3,6,1,5,3,3,0,0,3,26,61,1067,0,No
4,18,38,5,3,5,4,4,3,3,1,2,2,1126,0,No
13,24,57,0,4,6,0,0,0,0,0,0,0,1548,0,No
12,14,20,0,3,5,0,0,0,0,0,0,0,1562,0,No
1,2,1,0,0,0,0,0,0,0,0,0,0,0,0,No
5,10,29,0,0,1,0,0,0,0,0,0,0,100,0,No
3,3,3,46,0,1,46,46,46,46,3,26,61,13,0,No
7,0,9,0,0,4,0,0,0,0,0,0,0,1577,0,No
2,2,4,0,0,4,0,0,0,0,0,0,0,759,0,No
1,8,10,0,2,4,0,0,0,0,0,0,0,1386,0,No
1,1,4,0,0,1,0,0,0,0,0,0,0,304,0,No
8,7,8,0,1,4,0,0,0,0,0,0,0,622,0,No
13,10,15,0,1,5,0,0,0,0,0,0,0,621,0,No
2,4,2,0,0,5,0,0,0,0,0,0,0,1610,0,No
5,4,5,6,1,3,3,3,0,0,3,26,61,616,0,No
7,10,19,0,2,4,0,0,0,0,0,0,0,617,0,No
14,11,15,0,2,3,0,0,0,0,0,0,0,616,0,No
17,13,31,0,4,4,0,0,0,0,0,0,0,615,0,No
5,6,5,6,0,4,3,3,0,0,3,26,61,618,0,No
6,4,6,49,1,3,27,27,5,5,3,26,61,616,0,No
16,19,21,0,2,5,0,0,0,0,0,0,0,611,0,No
7,7,10,27,1,4,25,24,23,23,7,36,96,616,0,No
18,17,32,0,5,6,0,0,0,0,0,0,0,612,0,No
6,4,6,0,1,7,0,0,0,0,0,0,0,1610,0,No
6,5,16,0,1,3,0,0,0,0,0,0,0,609,0,No
1,1,1,0,1,6,0,0,0,0,0,0,0,1571,0,No
10,3,10,0,0,2,0,0,0,0,0,0,0,98,0,No
15,3,20,0,0,6,0,0,0,0,0,0,0,1063,0,No
2,12,2,0,0,2,0,0,0,0,0,0,0,268,0,No
7,28,29,0,3,5,0,0,0,0,0,0,0,647,0,No
10,10,15,0,0,1,0,0,0,0,0,0,0,98,0,Yes
10,10,15,0,0,1,0,0,0,0,0,0,0,98,0,No
3,0,3,0,0,3,0,0,0,0,0,0,0,1610,0,No
1,0,16,0,0,1,0,0,0,0,0,0,0,92,0,No
13,1,16,0,2,1,0,0,0,0,0,0,0,581,0,No
1,0,2,0,0,4,0,0,0,0,0,0,0,1610,0,No
0,0,0,0,0,5,0,0,0,0,0,0,0,1571,0,No
8,0,10,0,0,1,0,0,0,0,0,0,0,59,0,No
1,0,7,0,0,1,0,0,0,0,0,0,0,92,0,No
1,0,5,0,1,1,0,0,0,0,0,0,0,554,0,No
7,0,7,0,0,1,0,0,0,0,0,0,0,59,0,No
5,1,14,0,1,2,0,0,0,0,0,0,0,596,0,No
6,1,6,0,1,3,0,0,0,0,0,0,0,596,0,No
7,0,8,0,0,4,0,0,0,0,0,0,0,1610,0,No
2,0,4,0,0,4,0,0,0,0,0,0,0,1610,0,No
2,0,2,0,0,5,0,0,0,0,0,0,0,1571,0,No
14,0,18,0,1,5,0,0,0,0,0,0,0,994,0,No
9,3,9,0,2,5,0,0,0,0,0,0,0,688,0,No
0,0,0,0,1,6,0,0,0,0,0,0,0,1571,0,No
0,1,0,0,1,5,0,0,0,0,0,0,0,1171,0,No
3,0,3,0,1,6,0,0,0,0,0,0,0,1571,0,No
9,1,9,0,1,4,0,0,0,0,0,0,0,1060,0,Yes
0,0,0,0,0,3,0,0,0,0,0,0,0,1571,0,No
5,9,5,0,0,4,0,0,0,0,0,0,0,688,0,No
12,11,12,0,1,4,0,0,0,0,0,0,0,688,0,No
4,7,4,0,0,3,0,0,0,0,0,0,0,688,0,No
19,9,19,17,1,9,17,17,17,17,3,26,61,1078,0,No
18,13,25,38,6,8,30,30,22,22,3,26,61,1095,0,No
1,1,1,0,0,3,0,0,0,0,0,0,0,1171,0,No
1,0,1,0,0,3,0,0,0,0,0,0,0,1171,0,No
4,0,4,0,0,3,0,0,0,0,0,0,0,1171,0,No
1,1,1,0,1,4,0,0,0,0,0,0,0,1171,0,No
1,2,2,0,1,4,0,0,0,0,0,0,0,1084,0,No
1,3,1,0,0,3,0,0,0,0,0,0,0,1084,0,No
1,5,2,46,0,5,28,28,10,10,3,26,61,1084,0,No
1,3,2,21,0,3,12,12,3,3,3,26,61,1084,0,No
1,5,3,0,0,5,0,0,0,0,0,0,0,1084,0,No
3,0,3,0,1,1,0,0,0,0,0,0,0,93,0,No
1,0,2,0,0,1,0,0,0,0,0,0,0,93,0,No
18,9,20,0,1,1,0,0,0,0,0,0,0,423,0,No
2,0,4,0,0,1,0,0,0,0,0,0,0,482,0,No
3,4,3,0,0,4,0,0,0,0,0,0,0,1655,0,No
7,1,14,0,0,1,0,0,0,0,0,0,0,103,0,No
11,1,13,0,0,1,0,0,0,0,0,0,0,170,0,No
0,0,0,0,0,5,0,0,0,0,0,0,0,1216,0,No
0,1,0,0,0,4,0,0,0,0,0,0,0,1216,0,No
0,0,0,0,0,4,0,0,0,0,0,0,0,1216,0,No
9,1,14,0,0,5,0,0,0,0,0,0,0,1571,0,No
3,0,5,0,0,5,0,0,0,0,0,0,0,1655,0,No
5,1,6,0,0,4,0,0,0,0,0,0,0,1571,0,No
3,0,4,0,0,5,0,0,0,0,0,0,0,1655,0,No
2,1,2,0,1,4,0,0,0,0,0,0,0,1655,0,No
5,2,5,0,0,2,0,0,0,0,0,0,0,322,0,No
46,0,65,0,1,4,0,0,0,0,0,0,0,1591,0,No
9,1,9,0,0,2,0,0,0,0,0,0,0,683,0,No
13,0,20,0,0,5,0,0,0,0,0,0,0,1571,0,No
0,1,0,0,0,0,0,0,0,0,0,0,0,0,0,No
0,0,0,0,0,0,0,0,0,0,0,0,0,0,0,No
2,1,2,0,0,5,0,0,0,0,0,0,0,1216,0,No
1,0,1,0,0,4,0,0,0,0,0,0,0,1010,0,No
6,2,6,0,0,5,0,0,0,0,0,0,0,1010,0,No
11,1,13,0,0,3,0,0,0,0,0,0,0,985,0,No
6,2,6,0,0,5,0,0,0,0,0,0,0,1010,0,No
0,1,0,0,0,0,0,0,0,0,0,0,0,0,0,No
3,1,3,0,0,0,0,0,0,0,0,0,0,0,0,No
5,2,5,0,0,1,0,0,0,0,0,0,0,331,0,No
11,1,11,0,0,0,0,0,0,0,0,0,0,0,0,No
0,1,0,0,0,1,0,0,0,0,0,0,0,317,0,No
7,0,7,0,0,1,0,0,0,0,0,0,0,335,0,No
2,0,2,0,0,3,0,0,0,0,0,0,0,1616,0,No
2,0,4,0,0,0,0,0,0,0,0,0,0,0,0,No
11,0,11,0,1,2,0,0,0,0,0,0,0,335,0,No
9,0,9,0,1,2,0,0,0,0,0,0,0,335,0,No
2,0,2,0,1,2,0,0,0,0,0,0,0,335,0,No
7,4,7,0,1,3,0,0,0,0,0,0,0,682,0,No
13,7,13,0,1,3,0,0,0,0,0,0,0,682,0,No
2,1,2,0,0,4,0,0,0,0,0,0,0,1655,0,No
5,1,5,0,0,4,0,0,0,0,0,0,0,677,0,No
7,3,7,0,3,3,0,0,0,0,0,0,0,678,0,No
13,5,13,0,2,3,0,0,0,0,0,0,0,681,0,No
11,8,11,0,0,3,0,0,0,0,0,0,0,681,0,No
18,8,18,14,3,4,14,14,14,14,3,5,5,683,0,No
5,3,5,0,0,3,0,0,0,0,0,0,0,677,0,No
6,1,6,0,0,4,0,0,0,0,0,0,0,677,0,No
16,11,16,0,3,4,0,0,0,0,0,0,0,678,0,No
7,2,7,5,1,7,3,3,1,1,3,3,4,1655,0,No
18,10,18,0,3,6,0,0,0,0,0,0,0,683,0,No
4,2,4,0,1,4,0,0,0,0,0,0,0,682,0,No
6,0,8,0,0,7,0,0,0,0,0,0,0,1622,0,No
10,1,14,0,0,4,0,0,0,0,0,0,0,1493,0,No
8,2,8,0,0,4,0,0,0,0,0,0,0,1655,0,No
2,1,2,0,0,4,0,0,0,0,0,0,0,1655,0,No
3,0,7,0,0,5,0,0,0,0,0,0,0,1655,0,No
15,2,15,0,0,5,0,0,0,0,0,0,0,1216,0,No
9,1,11,0,0,2,0,0,0,0,0,0,0,479,0,No
9,1,13,0,0,6,0,0,0,0,0,0,0,1493,0,No
3,2,3,0,0,4,0,0,0,0,0,0,0,1655,0,No
5,1,5,0,0,5,0,0,0,0,0,0,0,1655,0,No
0,0,0,0,0,1,0,0,0,0,0,0,0,317,0,No
11,2,11,0,0,4,0,0,0,0,0,0,0,1593,0,No
19,3,21,0,0,7,0,0,0,0,0,0,0,1595,0,No
2,0,3,0,1,6,0,0,0,0,0,0,0,1031,0,No
10,1,10,0,0,1,0,0,0,0,0,0,0,355,0,No
2,0,2,0,0,4,0,0,0,0,0,0,0,1612,0,No
7,2,8,0,2,2,0,0,0,0,0,0,0,376,0,No
4,2,4,0,0,4,0,0,0,0,0,0,0,1655,0,No
16,3,16,0,0,6,0,0,0,0,0,0,0,1600,0,No
4,0,4,0,0,5,0,0,0,0,0,0,0,1655,0,No
26,3,26,0,0,7,0,0,0,0,0,0,0,1112,0,No
13,1,13,0,0,6,0,0,0,0,0,0,0,1105,0,No
2,2,2,0,0,4,0,0,0,0,0,0,0,1655,0,No
18,3,18,0,0,4,0,0,0,0,0,0,0,1493,0,No
4,0,4,0,0,2,0,0,0,0,0,0,0,317,0,No
2,0,2,0,0,4,0,0,0,0,0,0,0,1216,0,No
18,2,26,0,0,5,0,0,0,0,0,0,0,1010,0,No
40,3,40,0,1,5,0,0,0,0,0,0,0,1591,0,No
35,0,39,0,1,5,0,0,0,0,0,0,0,1584,0,No
12,0,16,0,0,5,0,0,0,0,0,0,0,1655,0,No
24,2,25,0,0,6,0,0,0,0,0,0,0,1655,0,No
4,1,4,0,0,4,0,0,0,0,0,0,0,1655,0,No
2,2,2,0,0,4,0,0,0,0,0,0,0,1655,0,No
6,0,6,0,0,5,0,0,0,0,0,0,0,1216,0,No
2,0,2,0,0,4,0,0,0,0,0,0,0,1493,0,No
2,0,2,0,0,5,0,0,0,0,0,0,0,1655,0,No
17,2,17,0,0,4,0,0,0,0,0,0,0,1118,0,No
0,1,0,0,0,0,0,0,0,0,0,0,0,0,0,No
18,1,22,0,0,5,0,0,0,0,0,0,0,1616,0,No
0,0,0,0,0,5,0,0,0,0,0,0,0,1616,0,No
7,4,10,0,2,3,0,0,0,0,0,0,0,969,0,No
2,0,2,0,0,6,0,0,0,0,0,0,0,1616,0,No
1,0,1,0,0,4,0,0,0,0,0,0,0,1616,0,No
0,0,0,0,0,5,0,0,0,0,0,0,0,1616,0,No
2,0,2,0,2,3,0,0,0,0,0,0,0,942,0,No
2,0,2,0,0,4,0,0,0,0,0,0,0,1616,0,No
1,0,1,0,0,5,0,0,0,0,0,0,0,1616,0,No
0,0,0,0,1,3,0,0,0,0,0,0,0,636,0,No
0,0,0,0,0,5,0,0,0,0,0,0,0,1616,0,No
46,1,50,0,0,7,0,0,0,0,0,0,0,1185,0,No
0,0,0,0,0,4,0,0,0,0,0,0,0,1616,0,No
0,0,0,0,0,5,0,0,0,0,0,0,0,1216,0,No
0,0,0,0,0,4,0,0,0,0,0,0,0,1616,0,No
0,0,0,0,0,5,0,0,0,0,0,0,0,1616,0,No
0,0,0,0,0,5,0,0,0,0,0,0,0,1616,0,No
0,0,0,0,1,6,0,0,0,0,0,0,0,1616,0,No
1,0,2,0,0,5,0,0,0,0,0,0,0,1616,0,No
8,2,9,0,0,8,0,0,0,0,0,0,0,1616,0,No
0,0,0,0,0,4,0,0,0,0,0,0,0,1616,0,No
0,0,0,0,0,5,0,0,0,0,0,0,0,1616,0,No
0,0,0,0,0,4,0,0,0,0,0,0,0,1216,0,No
2,0,2,0,0,0,0,0,0,0,0,0,0,0,0,No
0,1,0,0,0,4,0,0,0,0,0,0,0,1616,0,No
10,13,70,0,1,7,0,0,0,0,0,0,0,1098,0,No
0,0,0,0,0,1,0,0,0,0,0,0,0,317,0,No
0,0,0,0,0,1,0,0,0,0,0,0,0,317,0,No
0,0,0,0,0,1,0,0,0,0,0,0,0,317,0,No
0,0,0,0,0,1,0,0,0,0,0,0,0,317,0,No
0,0,0,0,0,1,0,0,0,0,0,0,0,317,0,No
0,0,0,0,0,2,0,0,0,0,0,0,0,317,0,No
0,0,0,0,0,1,0,0,0,0,0,0,0,317,0,No
0,0,0,0,0,1,0,0,0,0,0,0,0,317,0,No
0,0,0,0,1,6,0,0,0,0,0,0,0,1616,0,No
0,0,0,0,0,1,0,0,0,0,0,0,0,317,0,No
0,0,0,0,0,1,0,0,0,0,0,0,0,317,0,No
0,1,0,0,0,1,0,0,0,0,0,0,0,317,0,No
14,20,29,24,2,6,16,11,8,8,2,8,32,1616,0,No
22,3,28,0,3,8,0,0,0,0,0,0,0,1616,0,No
1,0,1,0,0,1,0,0,0,0,0,0,0,405,0,No
5,1,14,115,0,2,110,98,105,98,5,16,28,23,0,No
3,0,3,0,0,2,0,0,0,0,0,0,0,817,0,No
0,0,0,0,0,3,0,0,0,0,0,0,0,548,0,No
0,0,0,0,0,2,0,0,0,0,0,0,0,548,0,No
0,0,0,0,0,4,0,0,0,0,0,0,0,1616,0,No
6,0,9,0,0,4,0,0,0,0,0,0,0,997,0,No
2,0,2,0,0,5,0,0,0,0,0,0,0,1216,0,No
0,0,0,9,0,3,8,8,7,7,1,6,31,1616,0,No
1,6,3,0,1,4,0,0,0,0,0,0,0,1285,0,No
2,0,3,0,0,3,0,0,0,0,0,0,0,1655,0,No
2,0,7,0,1,5,0,0,0,0,0,0,0,1335,0,No
3,0,16,104,0,6,60,60,16,16,1,7,31,1444,0,No
5,1,5,0,0,1,0,0,0,0,0,0,0,382,0,No
3,2,3,0,0,4,0,0,0,0,0,0,0,1655,0,No
12,3,12,0,0,4,0,0,0,0,0,0,0,1655,0,No
2,0,6,0,0,1,0,0,0,0,0,0,0,139,0,No
1,0,1,0,1,7,0,0,0,0,0,0,0,1655,0,No
2,0,4,0,0,1,0,0,0,0,0,0,0,654,0,No
2,8,15,152,1,1,152,152,152,152,3,5,7,16,0,No
4,13,4,6,2,6,5,5,4,4,1,6,16,1616,0,No
2,2,2,0,0,5,0,0,0,0,0,0,0,1285,0,No
0,0,0,0,0,2,0,0,0,0,0,0,0,405,0,No
8,8,9,101,1,8,52,52,3,3,2,2,3,1215,0,No
0,0,0,0,0,4,0,0,0,0,0,0,0,1616,0,No
0,1,0,0,1,5,0,0,0,0,0,0,0,1616,0,No
0,0,0,0,1,5,0,0,0,0,0,0,0,1616,0,No
4,2,4,0,0,3,0,0,0,0,0,0,0,614,0,No
3,5,13,0,0,2,0,0,0,0,0,0,0,620,0,No
2,9,5,10,7,6,3,2,-4,0,4,20,70,1010,0,No
0,0,0,0,1,3,0,0,0,0,0,0,0,1616,0,No
0,0,0,0,0,3,0,0,0,0,0,0,0,1216,0,No
0,0,0,0,0,1,0,0,0,0,0,0,0,485,0,No
0,0,0,0,0,3,0,0,0,0,0,0,0,1616,0,No
0,1,0,0,0,5,0,0,0,0,0,0,0,1614,0,No
0,3,0,0,1,6,0,0,0,0,0,0,0,1105,0,No
0,2,0,0,1,4,0,0,0,0,0,0,0,1285,0,No
5,8,8,0,0,2,0,0,0,0,0,0,0,149,0,No
3,3,3,0,0,4,0,0,0,0,0,0,0,997,0,No
1,3,1,5,0,5,3,3,1,1,1,6,31,1285,0,No
2,2,3,0,0,7,0,0,0,0,0,0,0,1215,0,No
2,5,3,0,1,8,0,0,0,0,0,0,0,1215,0,No
2,5,4,1,0,6,1,1,1,1,1,6,31,1285,0,No
2,3,2,3,0,5,2,2,1,1,1,6,31,1285,0,No
2,1,2,0,0,5,0,0,0,0,0,0,0,1285,0,No
2,3,2,0,0,6,0,0,0,0,0,0,0,1616,0,No
6,10,12,0,0,1,0,0,0,0,0,0,0,149,0,No
0,3,0,0,1,3,0,0,0,0,0,0,0,548,0,No
0,3,0,0,0,6,0,0,0,0,0,0,0,1010,0,No
10,6,10,0,0,1,0,0,0,0,0,0,0,405,0,No
1,0,1,0,0,1,0,0,0,0,0,0,0,405,0,No
2,0,2,0,0,4,0,0,0,0,0,0,0,1616,0,No
11,14,33,9,6,7,5,5,1,1,1,6,31,1200,0,No
3,1,7,0,1,2,0,0,0,0,0,0,0,194,0,No
13,0,13,0,0,0,0,0,0,0,0,0,0,0,0,No
3,5,4,0,2,5,0,0,0,0,0,0,0,748,0,No
10,1,14,0,2,2,0,0,0,0,0,0,0,376,0,No
0,3,0,0,0,6,0,0,0,0,0,0,0,1010,0,No
2,2,5,0,0,1,0,0,0,0,0,0,0,139,0,No
1,1,2,0,0,1,0,0,0,0,0,0,0,139,0,No
2,1,2,0,1,1,0,0,0,0,0,0,0,359,0,No
1,1,5,0,0,1,0,0,0,0,0,0,0,359,0,No
3,2,3,0,2,6,0,0,0,0,0,0,0,1115,0,No
2,2,2,0,1,5,0,0,0,0,0,0,0,1412,0,No
5,3,7,0,1,5,0,0,0,0,0,0,0,1655,0,No
7,7,14,44,1,6,42,18,40,18,6,25,72,1564,0,No
2,0,2,0,0,4,0,0,0,0,0,0,0,1616,0,No
8,7,11,0,1,6,0,0,0,0,0,0,0,1564,0,No
5,2,5,0,1,6,0,0,0,0,0,0,0,1105,0,No
11,5,13,0,2,6,0,0,0,0,0,0,0,997,0,No
8,11,12,0,0,6,0,0,0,0,0,0,0,1585,0,No
17,14,17,2,4,7,1,1,0,0,3,5,5,1585,0,No
21,12,41,130,2,8,32,24,-66,24,4,14,26,1655,0,No
5,2,5,0,0,1,0,0,0,0,0,0,0,55,0,No
18,15,26,0,2,8,0,0,0,0,0,0,0,1480,0,No
18,17,19,0,3,8,0,0,0,0,0,0,0,1606,0,No
4,0,4,0,0,1,0,0,0,0,0,0,0,997,0,No
3,1,5,0,1,2,0,0,0,0,0,0,0,636,0,No
3,1,5,0,1,4,0,0,0,0,0,0,0,1335,0,No
2,0,2,0,1,4,0,0,0,0,0,0,0,1335,0,No
3,2,6,0,0,2,0,0,0,0,0,0,0,614,0,No
1,2,10,0,1,4,0,0,0,0,0,0,0,1102,0,No
0,0,0,0,0,4,0,0,0,0,0,0,0,1616,0,No
0,1,0,0,0,4,0,0,0,0,0,0,0,1616,0,No
3,0,3,0,0,5,0,0,0,0,0,0,0,1105,0,No
1,0,2,0,1,4,0,0,0,0,0,0,0,1616,0,No
1,0,2,0,1,5,0,0,0,0,0,0,0,1105,0,No
1,1,2,0,0,4,0,0,0,0,0,0,0,1105,0,No
1,2,3,0,0,4,0,0,0,0,0,0,0,1105,0,No
1,0,1,0,0,4,0,0,0,0,0,0,0,1616,0,No
32,3,82,4,2,5,2,2,0,0,1,7,31,1024,0,No
8,1,25,0,2,8,0,0,0,0,0,0,0,1564,0,No
2,1,2,0,0,3,0,0,0,0,0,0,0,1374,0,No
3,1,3,10,1,5,5,5,0,0,3,11,23,1172,0,No
2,1,3,0,1,5,0,0,0,0,0,0,0,1564,0,No
1,0,1,0,0,4,0,0,0,0,0,0,0,1616,0,No
6,1,28,0,1,7,0,0,0,0,0,0,0,1172,0,Yes
20,0,34,0,4,7,0,0,0,0,0,0,0,1172,0,Yes
0,0,0,0,0,3,0,0,0,0,0,0,0,1616,0,No
5,1,9,0,0,1,0,0,0,0,0,0,0,174,0,No
1,0,1,12,2,1,3,3,-6,0,3,11,23,646,0,No
1,0,1,0,0,5,0,0,0,0,0,0,0,1616,0,No
1,1,5,0,0,1,0,0,0,0,0,0,0,139,0,No
2,1,2,0,0,1,0,0,0,0,0,0,0,139,0,No
1,0,1,0,0,5,0,0,0,0,0,0,0,1616,0,No
1,0,1,0,0,5,0,0,0,0,0,0,0,1216,0,No
6,4,7,2,0,4,1,1,0,0,1,7,31,1101,0,No
1,1,1,0,0,4,0,0,0,0,0,0,0,1216,0,No
2,0,2,0,0,3,0,0,0,0,0,0,0,607,0,No
2,0,4,0,0,2,0,0,0,0,0,0,0,138,0,No
3,2,13,0,0,1,0,0,0,0,0,0,0,355,0,No
1,5,10,0,1,5,0,0,0,0,0,0,0,1018,0,No
1,2,1,0,1,6,0,0,0,0,0,0,0,1271,0,No
2,1,2,0,1,5,0,0,0,0,0,0,0,1216,0,No
1,2,2,0,0,2,0,0,0,0,0,0,0,479,0,No
11,3,16,0,0,6,0,0,0,0,0,0,0,1609,0,No
5,1,5,0,1,3,0,0,0,0,0,0,0,1655,0,No
2,0,2,0,0,3,0,0,0,0,0,0,0,1616,0,No
20,7,68,0,2,5,0,0,0,0,0,0,0,1644,0,No
19,0,37,0,1,4,0,0,0,0,0,0,0,1609,0,No
5,1,5,0,2,6,0,0,0,0,0,0,0,1629,0,No
8,0,13,0,0,5,0,0,0,0,0,0,0,1010,0,No
17,2,24,0,0,5,0,0,0,0,0,0,0,1600,0,No
2,0,2,0,2,5,0,0,0,0,0,0,0,1642,0,No
6,0,8,0,0,1,0,0,0,0,0,0,0,150,0,No
16,3,16,0,0,7,0,0,0,0,0,0,0,1216,0,No
8,0,11,0,0,5,0,0,0,0,0,0,0,1290,0,No
5,1,7,0,0,5,0,0,0,0,0,0,0,1609,0,No
25,4,33,0,0,5,0,0,0,0,0,0,0,1620,0,No
10,0,10,0,0,1,0,0,0,0,0,0,0,355,0,No
4,0,4,0,0,4,0,0,0,0,0,0,0,1644,0,No
41,7,47,0,0,6,0,0,0,0,0,0,0,1600,0,No
31,3,39,0,2,6,0,0,0,0,0,0,0,1112,0,No
16,1,17,0,0,5,0,0,0,0,0,0,0,1105,0,No
0,1,0,0,0,4,0,0,0,0,0,0,0,1609,0,No
6,4,6,0,2,5,0,0,0,0,0,0,0,1185,0,No
18,5,19,0,0,5,0,0,0,0,0,0,0,1493,0,No
0,1,0,0,0,5,0,0,0,0,0,0,0,1609,0,No
4,1,4,0,0,4,0,0,0,0,0,0,0,1616,0,No
6,1,8,0,0,4,0,0,0,0,0,0,0,1010,0,No
5,2,7,0,0,4,0,0,0,0,0,0,0,1010,0,No
8,1,8,0,0,5,0,0,0,0,0,0,0,1216,0,No
3,0,3,0,0,4,0,0,0,0,0,0,0,1609,0,No
0,1,0,0,0,5,0,0,0,0,0,0,0,1609,0,No
6,4,8,0,1,7,0,0,0,0,0,0,0,1216,0,No
6,2,6,0,0,4,0,0,0,0,0,0,0,1644,0,No
5,0,10,0,0,4,0,0,0,0,0,0,0,1493,0,No
4,0,4,0,0,3,0,0,0,0,0,0,0,1493,0,No
10,4,14,0,0,5,0,0,0,0,0,0,0,1609,0,No
5,3,7,0,0,5,0,0,0,0,0,0,0,1451,0,No
3,2,4,0,0,5,0,0,0,0,0,0,0,1655,0,No
0,1,0,0,1,4,0,0,0,0,0,0,0,1609,0,No
14,4,18,0,0,1,0,0,0,0,0,0,0,145,0,No
11,4,16,0,0,5,0,0,0,0,0,0,0,1609,0,Yes
4,2,4,0,0,4,0,0,0,0,0,0,0,1609,0,No
5,3,7,0,0,5,0,0,0,0,0,0,0,1451,0,No
3,2,4,0,0,5,0,0,0,0,0,0,0,1655,0,No
5,3,7,0,0,5,0,0,0,0,0,0,0,1609,0,No
4,2,4,0,0,4,0,0,0,0,0,0,0,1609,0,No
0,1,0,0,0,4,0,0,0,0,0,0,0,1609,0,No
0,1,0,0,0,4,0,0,0,0,0,0,0,1609,0,No
5,3,7,0,1,7,0,0,0,0,0,0,0,1609,0,No
4,2,4,0,0,4,0,0,0,0,0,0,0,1609,0,No
0,1,0,0,0,4,0,0,0,0,0,0,0,1609,0,No
18,6,43,0,0,6,0,0,0,0,0,0,0,1579,0,No
0,0,0,0,0,3,0,0,0,0,0,0,0,1616,0,No
11,4,16,0,0,5,0,0,0,0,0,0,0,1609,0,Yes
4,1,4,0,0,5,0,0,0,0,0,0,0,1655,0,No
5,3,7,0,0,5,0,0,0,0,0,0,0,1451,0,No
3,2,4,0,0,5,0,0,0,0,0,0,0,1655,0,No
5,3,7,0,0,5,0,0,0,0,0,0,0,1609,0,No
4,1,4,0,0,5,0,0,0,0,0,0,0,1655,0,No
0,1,0,0,0,4,0,0,0,0,0,0,0,1609,0,No
3,2,5,0,0,5,0,0,0,0,0,0,0,1655,0,No
0,1,0,0,0,4,0,0,0,0,0,0,0,1609,0,No
5,3,7,0,0,6,0,0,0,0,0,0,0,1609,0,No
4,1,4,0,0,5,0,0,0,0,0,0,0,1655,0,No
0,1,0,0,0,4,0,0,0,0,0,0,0,1609,0,No
51,18,95,0,1,5,0,0,0,0,0,0,0,1609,0,No
10,4,14,0,0,5,0,0,0,0,0,0,0,1609,0,Yes
5,3,7,0,0,5,0,0,0,0,0,0,0,1451,0,No
3,2,4,0,0,5,0,0,0,0,0,0,0,1655,0,No
4,3,5,0,0,5,0,0,0,0,0,0,0,1609,0,No
0,1,0,0,1,4,0,0,0,0,0,0,0,1609,0,No
3,2,5,0,0,5,0,0,0,0,0,0,0,1655,0,No
0,1,0,0,1,4,0,0,0,0,0,0,0,1609,0,No
4,3,5,0,0,6,0,0,0,0,0,0,0,1609,0,No
0,1,0,0,1,4,0,0,0,0,0,0,0,1609,0,No
3,1,3,0,0,4,0,0,0,0,0,0,0,1655,0,No
4,2,4,0,0,4,0,0,0,0,0,0,0,1655,0,No
5,2,5,0,0,4,0,0,0,0,0,0,0,1655,0,No
5,2,5,0,0,4,0,0,0,0,0,0,0,1655,0,No
4,2,4,0,0,4,0,0,0,0,0,0,0,1655,0,No
2,1,2,0,0,5,0,0,0,0,0,0,0,1616,0,No
4,1,4,0,0,3,0,0,0,0,0,0,0,1616,0,No
5,2,5,0,0,4,0,0,0,0,0,0,0,1655,0,No
5,4,5,0,0,4,0,0,0,0,0,0,0,1655,0,No
6,3,6,0,0,4,0,0,0,0,0,0,0,1655,0,No
5,3,5,0,0,4,0,0,0,0,0,0,0,1655,0,No
5,4,5,0,0,4,0,0,0,0,0,0,0,1655,0,No
0,0,0,0,0,5,0,0,0,0,0,0,0,1616,0,No
4,2,4,0,0,4,0,0,0,0,0,0,0,1216,0,No
9,6,9,0,1,5,0,0,0,0,0,0,0,1616,0,No
7,3,7,0,1,4,0,0,0,0,0,0,0,1655,0,No
7,3,7,0,0,4,0,0,0,0,0,0,0,1655,0,No
8,6,8,0,0,4,0,0,0,0,0,0,0,1655,0,No
22,9,22,0,1,6,0,0,0,0,0,0,0,1655,0,No
5,4,5,0,0,4,0,0,0,0,0,0,0,1655,0,No
4,2,4,0,0,4,0,0,0,0,0,0,0,1655,0,No
4,4,4,0,0,6,0,0,0,0,0,0,0,1655,0,No
5,4,5,0,1,6,0,0,0,0,0,0,0,1655,0,No
10,4,10,0,1,4,0,0,0,0,0,0,0,1655,0,No
8,3,8,0,0,4,0,0,0,0,0,0,0,1655,0,No
15,6,15,0,1,6,0,0,0,0,0,0,0,1655,0,No
5,2,5,0,0,4,0,0,0,0,0,0,0,1655,0,No
5,4,5,0,0,4,0,0,0,0,0,0,0,1655,0,No
3,2,5,0,0,4,0,0,0,0,0,0,0,1644,0,No
4,3,6,0,0,1,0,0,0,0,0,0,0,402,0,No
5,2,7,0,0,4,0,0,0,0,0,0,0,1644,0,Yes
5,8,11,17,1,4,15,15,13,13,1,2,2,1644,0,No
4,6,9,0,0,5,0,0,0,0,0,0,0,1644,0,No
5,2,7,0,0,4,0,0,0,0,0,0,0,1644,0,No
5,10,11,0,0,4,0,0,0,0,0,0,0,1644,0,No
6,5,9,0,0,4,0,0,0,0,0,0,0,1644,0,No
5,4,8,0,0,4,0,0,0,0,0,0,0,1018,0,No
5,5,7,0,0,5,0,0,0,0,0,0,0,1579,0,No
4,3,4,0,0,4,0,0,0,0,0,0,0,1112,0,No
1,0,6,0,2,6,0,0,0,0,0,0,0,1655,0,No
9,9,27,0,0,5,0,0,0,0,0,0,0,1185,0,No
7,4,10,0,2,4,0,0,0,0,0,0,0,1010,0,No
8,4,12,0,0,4,0,0,0,0,0,0,0,1010,0,No
9,19,33,0,0,7,0,0,0,0,0,0,0,1600,0,No
30,36,89,0,2,7,0,0,0,0,0,0,0,1644,0,No
5,12,13,0,0,4,0,0,0,0,0,0,0,1644,0,No
4,5,6,0,0,1,0,0,0,0,0,0,0,58,0,No
11,8,22,0,2,5,0,0,0,0,0,0,0,1644,0,No
9,7,14,0,0,4,0,0,0,0,0,0,0,1644,0,No
18,18,25,0,2,9,0,0,0,0,0,0,0,1399,0,No
5,2,7,0,0,4,0,0,0,0,0,0,0,1644,0,No
5,10,11,0,0,4,0,0,0,0,0,0,0,1644,0,No
4,0,4,0,0,1,0,0,0,0,0,0,0,103,0,No
7,0,11,0,0,1,0,0,0,0,0,0,0,103,0,No
3,0,3,0,0,1,0,0,0,0,0,0,0,103,0,No
7,0,8,0,1,1,0,0,0,0,0,0,0,334,0,No
3,0,3,0,0,1,0,0,0,0,0,0,0,103,0,No
0,0,0,0,0,0,0,0,0,0,0,0,0,0,0,No
2,2,2,0,0,4,0,0,0,0,0,0,0,1626,0,No
1,2,2,0,0,5,0,0,0,0,0,0,0,1655,0,No
1,4,6,0,0,6,0,0,0,0,0,0,0,1655,0,No
1,3,2,0,1,5,0,0,0,0,0,0,0,1626,0,No
0,1,0,0,0,5,0,0,0,0,0,0,0,1655,0,No
0,0,0,0,0,3,0,0,0,0,0,0,0,1655,0,No
1,1,1,0,0,3,0,0,0,0,0,0,0,1626,0,No
0,0,0,0,0,4,0,0,0,0,0,0,0,1451,0,No
2,1,2,0,3,4,0,0,0,0,0,0,0,1655,0,No
0,0,0,0,0,4,0,0,0,0,0,0,0,1451,0,No
0,0,0,0,0,4,0,0,0,0,0,0,0,1451,0,No
0,0,0,0,0,4,0,0,0,0,0,0,0,1451,0,No
1,1,2,0,0,4,0,0,0,0,0,0,0,1451,0,No
0,0,0,0,0,4,0,0,0,0,0,0,0,1451,0,No
4,1,7,0,2,5,0,0,0,0,0,0,0,1451,0,No
0,0,0,0,0,4,0,0,0,0,0,0,0,1216,0,No
1,3,5,0,2,5,0,0,0,0,0,0,0,1112,0,No
0,0,0,0,0,4,0,0,0,0,0,0,0,1451,0,No
0,0,0,0,0,4,0,0,0,0,0,0,0,1216,0,No
0,0,0,0,0,4,0,0,0,0,0,0,0,1216,0,No
0,0,0,0,0,4,0,0,0,0,0,0,0,1216,0,No
0,0,0,0,0,4,0,0,0,0,0,0,0,1451,0,No
0,0,0,0,1,4,0,0,0,0,0,0,0,1451,0,No
2,15,18,0,1,1,0,0,0,0,0,0,0,422,0,No
1,3,8,0,2,5,0,0,0,0,0,0,0,1451,0,No
0,0,0,0,0,4,0,0,0,0,0,0,0,1451,0,No
1,2,3,0,2,3,0,0,0,0,0,0,0,752,0,No
0,0,0,0,0,5,0,0,0,0,0,0,0,1451,0,No
3,14,24,0,2,8,0,0,0,0,0,0,0,1122,0,Yes
1,3,24,0,2,7,0,0,0,0,0,0,0,1115,0,No
0,0,0,0,0,4,0,0,0,0,0,0,0,1616,0,No
12,3,61,0,0,8,0,0,0,0,0,0,0,1172,0,No
0,0,0,0,0,4,0,0,0,0,0,0,0,1616,0,No
0,0,0,0,0,5,0,0,0,0,0,0,0,1616,0,No
1,1,1,0,1,6,0,0,0,0,0,0,0,1115,0,No
18,4,18,0,0,4,0,0,0,0,0,0,0,668,0,No
4,3,4,0,0,4,0,0,0,0,0,0,0,699,0,No
2,2,2,0,0,5,0,0,0,0,0,0,0,1616,0,No
17,1,44,0,1,5,0,0,0,0,0,0,0,1570,0,No
1,0,1,0,1,4,0,0,0,0,0,0,0,1655,0,No
3,3,3,0,0,4,0,0,0,0,0,0,0,1007,0,No
4,2,4,0,2,2,0,0,0,0,0,0,0,755,0,No
0,0,0,0,0,6,0,0,0,0,0,0,0,1616,0,No
4,5,10,0,0,5,0,0,0,0,0,0,0,733,0,No
2,7,11,0,4,4,0,0,0,0,0,0,0,711,0,No
0,0,0,0,0,3,0,0,0,0,0,0,0,1616,0,No
1,0,1,0,1,3,0,0,0,0,0,0,0,1616,0,No
1,0,1,0,1,3,0,0,0,0,0,0,0,1616,0,No
0,0,0,0,0,3,0,0,0,0,0,0,0,1616,0,No
4,1,5,0,1,4,0,0,0,0,0,0,0,1216,0,No
0,0,0,0,0,4,0,0,0,0,0,0,0,1216,0,No
2,1,2,0,0,5,0,0,0,0,0,0,0,1010,0,No
0,1,0,0,0,4,0,0,0,0,0,0,0,1216,0,No
2,2,11,0,1,3,0,0,0,0,0,0,0,985,0,No
10,0,10,0,0,1,0,0,0,0,0,0,0,381,0,No
1,0,4,0,0,0,0,0,0,0,0,0,0,0,0,No
2,1,4,0,1,5,0,0,0,0,0,0,0,1655,0,No
6,1,6,0,0,5,0,0,0,0,0,0,0,1655,0,No
7,4,7,0,0,7,0,0,0,0,0,0,0,1616,0,No
3,4,4,0,0,4,0,0,0,0,0,0,0,1434,0,No
0,0,0,0,0,7,0,0,0,0,0,0,0,1655,0,No
1,0,1,0,0,4,0,0,0,0,0,0,0,1655,0,No
0,0,0,0,1,2,0,0,0,0,0,0,0,376,0,No
7,11,10,0,0,2,0,0,0,0,0,0,0,481,0,No
11,6,12,0,2,6,0,0,0,0,0,0,0,1105,0,No
2,2,2,0,0,4,0,0,0,0,0,0,0,1616,0,No
3,11,5,0,0,4,0,0,0,0,0,0,0,1580,0,No
5,11,36,0,0,6,0,0,0,0,0,0,0,1595,0,No
2,2,2,0,0,5,0,0,0,0,0,0,0,1616,0,No
3,3,3,0,1,5,0,0,0,0,0,0,0,1112,0,No
4,18,38,0,3,5,0,0,0,0,0,0,0,1171,0,No
13,24,57,0,4,6,0,0,0,0,0,0,0,1593,0,No
12,14,20,0,3,5,0,0,0,0,0,0,0,1607,0,No
1,2,1,0,0,0,0,0,0,0,0,0,0,0,0,No
5,10,29,0,0,1,0,0,0,0,0,0,0,145,0,No
3,3,3,0,0,1,0,0,0,0,0,0,0,58,0,No
7,0,9,0,0,4,0,0,0,0,0,0,0,1622,0,No
2,2,4,0,0,4,0,0,0,0,0,0,0,804,0,No
1,8,10,0,2,4,0,0,0,0,0,0,0,1431,0,No
1,1,4,0,0,1,0,0,0,0,0,0,0,349,0,No
8,7,8,0,1,4,0,0,0,0,0,0,0,667,0,No
13,10,15,0,1,5,0,0,0,0,0,0,0,666,0,No
2,4,2,0,0,5,0,0,0,0,0,0,0,1655,0,No
5,4,5,0,1,3,0,0,0,0,0,0,0,661,0,No
7,10,19,0,2,4,0,0,0,0,0,0,0,662,0,No
14,11,15,0,2,3,0,0,0,0,0,0,0,661,0,No
18,14,32,6,5,4,6,6,6,6,3,5,5,660,0,No
5,6,5,0,0,4,0,0,0,0,0,0,0,663,0,No
6,4,6,0,1,3,0,0,0,0,0,0,0,661,0,No
16,19,21,0,2,5,0,0,0,0,0,0,0,656,0,No
7,7,10,0,1,4,0,0,0,0,0,0,0,661,0,No
18,17,32,0,5,6,0,0,0,0,0,0,0,657,0,No
6,4,6,0,1,7,0,0,0,0,0,0,0,1655,0,No
6,5,16,0,1,3,0,0,0,0,0,0,0,654,0,No
1,1,1,0,1,6,0,0,0,0,0,0,0,1616,0,No
10,3,10,0,0,2,0,0,0,0,0,0,0,143,0,No
15,3,20,0,0,6,0,0,0,0,0,0,0,1108,0,No
2,12,2,0,0,2,0,0,0,0,0,0,0,313,0,No
7,28,29,0,3,5,0,0,0,0,0,0,0,692,0,No
10,10,15,2,1,2,1,1,0,0,1,2,4,143,0,No
10,10,15,0,0,1,0,0,0,0,0,0,0,143,0,No
3,0,3,0,0,3,0,0,0,0,0,0,0,1655,0,No
1,0,16,0,0,1,0,0,0,0,0,0,0,137,0,No
13,1,16,0,2,1,0,0,0,0,0,0,0,626,0,No
1,0,2,0,0,4,0,0,0,0,0,0,0,1655,0,No
0,0,0,0,0,5,0,0,0,0,0,0,0,1616,0,No
2,0,4,2,1,2,1,1,0,0,1,1,3,137,0,No
8,0,10,0,0,1,0,0,0,0,0,0,0,104,0,No
1,0,9,8,1,2,8,8,8,8,1,1,3,137,0,No
1,1,7,59,1,1,59,59,59,59,1,1,3,18,0,No
1,0,5,0,1,1,0,0,0,0,0,0,0,599,0,No
7,0,7,0,0,1,0,0,0,0,0,0,0,104,0,No
5,1,14,0,1,2,0,0,0,0,0,0,0,641,0,No
6,1,6,0,1,3,0,0,0,0,0,0,0,641,0,No
7,0,8,0,0,4,0,0,0,0,0,0,0,1655,0,No
2,0,4,0,0,4,0,0,0,0,0,0,0,1655,0,No
2,0,2,0,0,5,0,0,0,0,0,0,0,1616,0,No
14,0,18,0,1,5,0,0,0,0,0,0,0,1039,0,No
9,3,9,0,2,5,0,0,0,0,0,0,0,733,0,No
0,0,0,0,1,6,0,0,0,0,0,0,0,1616,0,No
0,1,0,0,1,5,0,0,0,0,0,0,0,1216,0,No
3,0,3,0,1,6,0,0,0,0,0,0,0,1616,0,No
9,1,9,0,1,4,0,0,0,0,0,0,0,1105,0,Yes
0,0,0,0,0,3,0,0,0,0,0,0,0,1616,0,No
5,9,5,0,0,4,0,0,0,0,0,0,0,733,0,No
12,11,12,0,1,4,0,0,0,0,0,0,0,733,0,No
4,7,4,0,0,3,0,0,0,0,0,0,0,733,0,No
19,9,19,0,1,9,0,0,0,0,0,0,0,1123,0,No
18,13,25,0,6,8,0,0,0,0,0,0,0,1140,0,No
1,1,1,0,0,3,0,0,0,0,0,0,0,1216,0,No
1,0,1,0,0,3,0,0,0,0,0,0,0,1216,0,No
4,0,4,0,0,3,0,0,0,0,0,0,0,1216,0,No
1,1,1,0,1,4,0,0,0,0,0,0,0,1216,0,No
1,2,2,2,1,4,1,1,0,0,1,1,6,1129,0,No
1,3,1,2,0,3,1,1,0,0,1,1,6,1129,0,No
1,5,2,8,0,5,3,3,-2,0,1,1,6,1129,0,No
1,3,2,8,0,3,3,3,-2,0,1,1,6,1129,0,No
1,5,3,4,0,5,2,2,0,0,1,1,6,1129,0,No
3,0,3,0,1,1,0,0,0,0,0,0,0,138,0,No
1,0,2,0,0,1,0,0,0,0,0,0,0,138,0,No
18,9,20,0,1,1,0,0,0,0,0,0,0,497,0,Yes
2,0,4,0,0,1,0,0,0,0,0,0,0,556,0,Yes
3,4,3,0,0,4,0,0,0,0,0,0,0,1729,0,No
7,1,14,0,0,1,0,0,0,0,0,0,0,177,0,No
11,1,13,0,0,1,0,0,0,0,0,0,0,244,0,No
0,0,0,0,0,5,0,0,0,0,0,0,0,1290,0,No
0,1,0,0,0,4,0,0,0,0,0,0,0,1290,0,No
0,0,0,0,0,4,0,0,0,0,0,0,0,1290,0,No
9,1,14,0,0,5,0,0,0,0,0,0,0,1645,0,No
3,0,5,0,0,5,0,0,0,0,0,0,0,1729,0,No
5,1,6,0,0,4,0,0,0,0,0,0,0,1645,0,No
3,0,4,0,0,5,0,0,0,0,0,0,0,1729,0,No
2,1,2,0,1,4,0,0,0,0,0,0,0,1729,0,No
5,2,5,0,0,2,0,0,0,0,0,0,0,396,0,No
46,0,65,0,1,4,0,0,0,0,0,0,0,1665,0,No
9,1,9,0,0,2,0,0,0,0,0,0,0,757,0,No
13,0,20,0,0,5,0,0,0,0,0,0,0,1645,0,No
0,1,0,0,0,0,0,0,0,0,0,0,0,0,0,No
0,0,0,0,0,0,0,0,0,0,0,0,0,0,0,No
2,1,2,0,0,5,0,0,0,0,0,0,0,1290,0,No
1,0,1,0,0,4,0,0,0,0,0,0,0,1084,0,No
6,2,6,0,0,5,0,0,0,0,0,0,0,1084,0,No
11,1,13,0,0,3,0,0,0,0,0,0,0,1059,0,No
6,2,6,0,0,5,0,0,0,0,0,0,0,1084,0,No
0,1,0,0,0,0,0,0,0,0,0,0,0,0,0,No
3,1,3,0,0,0,0,0,0,0,0,0,0,0,0,No
5,2,5,0,0,1,0,0,0,0,0,0,0,405,0,No
11,1,11,0,0,0,0,0,0,0,0,0,0,0,0,No
0,1,0,0,0,1,0,0,0,0,0,0,0,391,0,No
7,0,7,0,0,1,0,0,0,0,0,0,0,409,0,No
2,0,2,0,0,3,0,0,0,0,0,0,0,1690,0,No
2,0,4,0,0,0,0,0,0,0,0,0,0,0,0,No
11,0,11,0,1,2,0,0,0,0,0,0,0,409,0,No
9,0,9,0,1,2,0,0,0,0,0,0,0,409,0,No
2,0,2,0,1,2,0,0,0,0,0,0,0,409,0,No
7,4,7,0,1,3,0,0,0,0,0,0,0,756,0,No
13,7,13,0,1,3,0,0,0,0,0,0,0,756,0,No
2,1,2,0,0,4,0,0,0,0,0,0,0,1729,0,No
5,1,5,0,0,4,0,0,0,0,0,0,0,751,0,No
7,3,7,0,3,3,0,0,0,0,0,0,0,752,0,No
13,5,13,0,2,3,0,0,0,0,0,0,0,755,0,No
10,8,10,11,0,3,0,0,-11,0,2,6,7,755,0,No
18,8,18,0,3,4,0,0,0,0,0,0,0,757,0,No
5,3,5,0,0,3,0,0,0,0,0,0,0,751,0,No
6,1,6,0,0,4,0,0,0,0,0,0,0,751,0,No
16,11,16,0,3,4,0,0,0,0,0,0,0,752,0,No
7,2,7,0,1,7,0,0,0,0,0,0,0,1729,0,No
18,10,18,0,3,6,0,0,0,0,0,0,0,757,0,No
4,2,4,0,1,4,0,0,0,0,0,0,0,756,0,No
6,0,8,0,0,7,0,0,0,0,0,0,0,1696,0,No
10,1,14,0,0,4,0,0,0,0,0,0,0,1567,0,No
8,2,8,0,0,4,0,0,0,0,0,0,0,1729,0,No
2,1,2,0,0,4,0,0,0,0,0,0,0,1729,0,No
3,0,7,0,0,5,0,0,0,0,0,0,0,1729,0,No
15,2,15,0,0,5,0,0,0,0,0,0,0,1290,0,No
9,1,11,0,0,2,0,0,0,0,0,0,0,553,0,No
9,1,13,0,0,6,0,0,0,0,0,0,0,1567,0,No
3,2,3,0,0,4,0,0,0,0,0,0,0,1729,0,No
5,1,5,0,0,5,0,0,0,0,0,0,0,1729,0,No
0,0,0,0,0,1,0,0,0,0,0,0,0,391,0,No
11,2,11,0,0,4,0,0,0,0,0,0,0,1667,0,No
19,3,21,0,0,7,0,0,0,0,0,0,0,1669,0,No
2,0,3,0,1,6,0,0,0,0,0,0,0,1105,0,No
10,1,10,0,0,1,0,0,0,0,0,0,0,429,0,No
2,0,2,0,0,4,0,0,0,0,0,0,0,1686,0,No
7,2,8,0,2,2,0,0,0,0,0,0,0,450,0,No
4,2,4,0,0,4,0,0,0,0,0,0,0,1729,0,No
16,3,16,0,0,6,0,0,0,0,0,0,0,1674,0,No
4,0,4,0,0,5,0,0,0,0,0,0,0,1729,0,No
26,3,26,0,0,7,0,0,0,0,0,0,0,1186,0,No
13,1,13,0,0,6,0,0,0,0,0,0,0,1179,0,No
2,2,2,0,0,4,0,0,0,0,0,0,0,1729,0,No
18,3,18,0,0,4,0,0,0,0,0,0,0,1567,0,No
4,0,4,0,0,2,0,0,0,0,0,0,0,391,0,No
2,0,2,0,0,4,0,0,0,0,0,0,0,1290,0,No
18,2,26,0,0,5,0,0,0,0,0,0,0,1084,0,No
40,3,40,0,1,5,0,0,0,0,0,0,0,1665,0,No
35,0,39,0,1,5,0,0,0,0,0,0,0,1658,0,No
12,0,16,0,0,5,0,0,0,0,0,0,0,1729,0,No
24,2,25,0,0,6,0,0,0,0,0,0,0,1729,0,No
4,1,4,0,0,4,0,0,0,0,0,0,0,1729,0,No
2,2,2,0,0,4,0,0,0,0,0,0,0,1729,0,No
6,0,6,0,0,5,0,0,0,0,0,0,0,1290,0,No
2,0,2,0,0,4,0,0,0,0,0,0,0,1567,0,No
2,0,2,0,0,5,0,0,0,0,0,0,0,1729,0,No
17,2,17,0,0,4,0,0,0,0,0,0,0,1192,0,No
0,1,0,0,0,0,0,0,0,0,0,0,0,0,0,No
18,1,22,0,0,5,0,0,0,0,0,0,0,1690,0,No
0,0,0,0,0,5,0,0,0,0,0,0,0,1690,0,No
7,4,10,0,2,3,0,0,0,0,0,0,0,1043,0,No
2,0,2,0,0,6,0,0,0,0,0,0,0,1690,0,No
1,0,1,0,0,4,0,0,0,0,0,0,0,1690,0,No
0,0,0,0,0,5,0,0,0,0,0,0,0,1690,0,No
2,0,2,0,2,3,0,0,0,0,0,0,0,1016,0,No
2,0,2,0,0,4,0,0,0,0,0,0,0,1690,0,No
1,0,1,0,0,5,0,0,0,0,0,0,0,1690,0,No
0,0,0,0,1,3,0,0,0,0,0,0,0,710,0,No
0,0,0,0,0,5,0,0,0,0,0,0,0,1690,0,No
46,1,50,0,0,7,0,0,0,0,0,0,0,1259,0,No
0,0,0,0,0,4,0,0,0,0,0,0,0,1690,0,No
0,0,0,0,0,5,0,0,0,0,0,0,0,1290,0,No
0,0,0,0,0,4,0,0,0,0,0,0,0,1690,0,No
0,0,0,0,0,5,0,0,0,0,0,0,0,1690,0,No
0,0,0,0,0,5,0,0,0,0,0,0,0,1690,0,No
0,0,0,0,1,6,0,0,0,0,0,0,0,1690,0,No
1,0,2,0,0,5,0,0,0,0,0,0,0,1690,0,No
8,2,9,0,0,8,0,0,0,0,0,0,0,1690,0,No
0,0,0,0,0,4,0,0,0,0,0,0,0,1690,0,No
0,0,0,0,0,5,0,0,0,0,0,0,0,1690,0,No
0,0,0,0,0,4,0,0,0,0,0,0,0,1290,0,No
2,0,2,0,0,0,0,0,0,0,0,0,0,0,0,No
0,1,0,0,0,4,0,0,0,0,0,0,0,1690,0,No
10,13,70,0,1,7,0,0,0,0,0,0,0,1172,0,No
0,0,0,0,0,1,0,0,0,0,0,0,0,391,0,No
0,0,0,0,0,1,0,0,0,0,0,0,0,391,0,No
0,0,0,0,0,1,0,0,0,0,0,0,0,391,0,No
0,0,0,0,0,1,0,0,0,0,0,0,0,391,0,No
0,0,0,0,0,1,0,0,0,0,0,0,0,391,0,No
0,0,0,0,0,2,0,0,0,0,0,0,0,391,0,No
0,0,0,0,0,1,0,0,0,0,0,0,0,391,0,No
0,0,0,0,0,1,0,0,0,0,0,0,0,391,0,No
0,0,0,0,1,6,0,0,0,0,0,0,0,1690,0,No
0,0,0,0,0,1,0,0,0,0,0,0,0,391,0,No
0,0,0,0,0,1,0,0,0,0,0,0,0,391,0,No
0,1,0,0,0,1,0,0,0,0,0,0,0,391,0,No
14,20,29,0,2,6,0,0,0,0,0,0,0,1690,0,No
22,3,28,0,3,8,0,0,0,0,0,0,0,1690,0,No
1,0,1,0,0,1,0,0,0,0,0,0,0,479,0,No
5,1,14,0,0,2,0,0,0,0,0,0,0,97,0,No
3,0,3,0,0,2,0,0,0,0,0,0,0,891,0,No
0,0,0,0,0,3,0,0,0,0,0,0,0,622,0,No
0,0,0,0,0,2,0,0,0,0,0,0,0,622,0,No
0,0,0,0,0,4,0,0,0,0,0,0,0,1690,0,No
6,0,9,0,0,4,0,0,0,0,0,0,0,1071,0,No
2,0,2,0,0,5,0,0,0,0,0,0,0,1290,0,No
0,0,0,0,0,3,0,0,0,0,0,0,0,1690,0,No
1,6,3,0,1,4,0,0,0,0,0,0,0,1359,0,No
2,0,3,0,0,3,0,0,0,0,0,0,0,1729,0,No
2,0,7,0,1,5,0,0,0,0,0,0,0,1409,0,No
3,0,16,0,0,6,0,0,0,0,0,0,0,1518,0,No
5,1,5,0,0,1,0,0,0,0,0,0,0,456,0,No
3,2,3,0,0,4,0,0,0,0,0,0,0,1729,0,No
12,3,12,0,0,4,0,0,0,0,0,0,0,1729,0,No
2,0,6,0,0,1,0,0,0,0,0,0,0,213,0,No
1,0,1,0,1,7,0,0,0,0,0,0,0,1729,0,No
2,0,4,0,0,1,0,0,0,0,0,0,0,728,0,No
2,8,15,0,1,1,0,0,0,0,0,0,0,90,0,No
4,13,4,0,2,6,0,0,0,0,0,0,0,1690,0,No
2,2,2,0,0,5,0,0,0,0,0,0,0,1359,0,No
0,0,0,0,0,2,0,0,0,0,0,0,0,479,0,No
8,8,9,0,1,8,0,0,0,0,0,0,0,1289,0,No
0,0,0,0,0,4,0,0,0,0,0,0,0,1690,0,No
0,1,0,0,1,5,0,0,0,0,0,0,0,1690,0,No
0,0,0,0,1,5,0,0,0,0,0,0,0,1690,0,No
4,2,4,0,0,3,0,0,0,0,0,0,0,688,0,No
3,5,13,0,0,2,0,0,0,0,0,0,0,694,0,No
2,9,5,0,7,6,0,0,0,0,0,0,0,1084,0,No
0,0,0,0,1,3,0,0,0,0,0,0,0,1690,0,No
0,0,0,0,0,3,0,0,0,0,0,0,0,1290,0,No
0,0,0,0,0,1,0,0,0,0,0,0,0,559,0,No
0,0,0,0,0,3,0,0,0,0,0,0,0,1690,0,No
0,1,0,0,0,5,0,0,0,0,0,0,0,1688,0,No
0,3,0,0,1,6,0,0,0,0,0,0,0,1179,0,No
0,2,0,0,1,4,0,0,0,0,0,0,0,1359,0,No
5,8,8,0,0,2,0,0,0,0,0,0,0,223,0,No
3,3,3,0,0,4,0,0,0,0,0,0,0,1071,0,No
1,3,1,0,0,5,0,0,0,0,0,0,0,1359,0,No
2,2,3,0,0,7,0,0,0,0,0,0,0,1289,0,No
2,5,3,0,1,8,0,0,0,0,0,0,0,1289,0,No
2,5,4,0,0,6,0,0,0,0,0,0,0,1359,0,No
2,3,2,0,0,5,0,0,0,0,0,0,0,1359,0,No
2,1,2,0,0,5,0,0,0,0,0,0,0,1359,0,No
2,3,2,0,0,6,0,0,0,0,0,0,0,1690,0,No
6,10,12,0,0,1,0,0,0,0,0,0,0,223,0,No
0,3,0,0,1,3,0,0,0,0,0,0,0,622,0,No
0,3,0,0,0,6,0,0,0,0,0,0,0,1084,0,No
10,6,10,0,0,1,0,0,0,0,0,0,0,479,0,No
1,0,1,0,0,1,0,0,0,0,0,0,0,479,0,No
2,0,2,0,0,4,0,0,0,0,0,0,0,1690,0,No
11,14,33,0,6,7,0,0,0,0,0,0,0,1274,0,No
3,1,7,0,1,2,0,0,0,0,0,0,0,268,0,No
13,0,13,0,0,0,0,0,0,0,0,0,0,0,0,No
3,5,4,0,2,5,0,0,0,0,0,0,0,822,0,No
10,1,14,0,2,2,0,0,0,0,0,0,0,450,0,No
0,3,0,0,0,6,0,0,0,0,0,0,0,1084,0,No
2,2,5,0,0,1,0,0,0,0,0,0,0,213,0,No
1,1,2,0,0,1,0,0,0,0,0,0,0,213,0,No
2,1,2,0,1,1,0,0,0,0,0,0,0,433,0,No
1,1,5,0,0,1,0,0,0,0,0,0,0,433,0,No
3,2,3,0,2,6,0,0,0,0,0,0,0,1189,0,No
2,2,2,0,1,5,0,0,0,0,0,0,0,1486,0,No
5,3,7,0,1,5,0,0,0,0,0,0,0,1729,0,No
7,7,14,0,1,6,0,0,0,0,0,0,0,1638,0,No
2,0,2,0,0,4,0,0,0,0,0,0,0,1690,0,No
8,7,11,0,1,6,0,0,0,0,0,0,0,1638,0,No
5,2,5,0,1,6,0,0,0,0,0,0,0,1179,0,No
11,5,13,0,2,6,0,0,0,0,0,0,0,1071,0,No
8,11,12,0,0,6,0,0,0,0,0,0,0,1659,0,No
17,14,17,0,4,7,0,0,0,0,0,0,0,1659,0,No
21,12,41,0,2,8,0,0,0,0,0,0,0,1729,0,No
5,2,5,0,0,1,0,0,0,0,0,0,0,129,0,No
18,15,26,0,2,8,0,0,0,0,0,0,0,1554,0,No
18,17,19,0,3,8,0,0,0,0,0,0,0,1680,0,No
4,0,4,0,0,1,0,0,0,0,0,0,0,1071,0,No
3,1,5,0,1,2,0,0,0,0,0,0,0,710,0,No
3,1,5,0,1,4,0,0,0,0,0,0,0,1409,0,No
2,0,2,0,1,4,0,0,0,0,0,0,0,1409,0,No
3,2,6,0,0,2,0,0,0,0,0,0,0,688,0,No
1,2,10,0,1,4,0,0,0,0,0,0,0,1176,0,No
0,0,0,0,0,4,0,0,0,0,0,0,0,1690,0,No
0,1,0,0,0,4,0,0,0,0,0,0,0,1690,0,No
3,0,3,0,0,5,0,0,0,0,0,0,0,1179,0,No
1,0,2,0,1,4,0,0,0,0,0,0,0,1690,0,No
1,0,2,0,1,5,0,0,0,0,0,0,0,1179,0,No
1,1,2,0,0,4,0,0,0,0,0,0,0,1179,0,No
1,2,3,0,0,4,0,0,0,0,0,0,0,1179,0,No
1,0,1,0,0,4,0,0,0,0,0,0,0,1690,0,No
32,3,82,0,2,5,0,0,0,0,0,0,0,1098,0,No
8,1,25,0,2,8,0,0,0,0,0,0,0,1638,0,No
2,1,2,0,0,3,0,0,0,0,0,0,0,1448,0,No
3,1,3,0,1,5,0,0,0,0,0,0,0,1246,0,No
2,1,3,0,1,5,0,0,0,0,0,0,0,1638,0,No
1,0,1,0,0,4,0,0,0,0,0,0,0,1690,0,No
6,1,30,6,2,7,3,3,0,0,1,3,4,1246,0,No
20,0,30,4,5,7,1,1,-2,0,1,3,4,1246,0,No
0,0,0,0,0,3,0,0,0,0,0,0,0,1690,0,No
5,1,9,0,0,1,0,0,0,0,0,0,0,248,0,No
1,0,1,0,2,1,0,0,0,0,0,0,0,720,0,No
1,0,1,0,0,5,0,0,0,0,0,0,0,1690,0,No
1,1,5,0,0,1,0,0,0,0,0,0,0,213,0,No
2,1,2,0,0,1,0,0,0,0,0,0,0,213,0,No
1,0,1,0,0,5,0,0,0,0,0,0,0,1690,0,No
1,0,1,0,0,5,0,0,0,0,0,0,0,1290,0,No
6,4,7,0,0,4,0,0,0,0,0,0,0,1175,0,No
1,1,1,0,0,4,0,0,0,0,0,0,0,1290,0,No
2,0,2,0,0,3,0,0,0,0,0,0,0,681,0,No
2,0,4,0,0,2,0,0,0,0,0,0,0,212,0,No
4,1,4,38,0,5,19,19,0,0,1,6,8,1290,0,No
5,1,14,18,1,2,11,11,4,4,1,6,8,715,0,No
4,1,4,65,0,1,65,65,65,65,1,6,8,38,0,No
6,1,6,2,1,3,1,1,0,0,1,6,8,715,0,No
7,0,8,4,0,4,2,2,0,0,1,6,8,1729,0,No
3,2,13,0,0,1,0,0,0,0,0,0,0,429,0,No
1,5,10,0,1,5,0,0,0,0,0,0,0,1092,0,No
1,2,1,0,1,6,0,0,0,0,0,0,0,1345,0,No
2,1,2,0,1,5,0,0,0,0,0,0,0,1290,0,No
1,2,2,0,0,2,0,0,0,0,0,0,0,553,0,No
11,3,16,0,0,6,0,0,0,0,0,0,0,1683,0,No
5,1,5,0,1,3,0,0,0,0,0,0,0,1729,0,Yes
2,0,2,0,0,3,0,0,0,0,0,0,0,1690,0,No
20,7,68,0,2,5,0,0,0,0,0,0,0,1718,0,No
19,0,37,0,1,4,0,0,0,0,0,0,0,1683,0,No
5,1,5,0,2,6,0,0,0,0,0,0,0,1703,0,No
8,0,13,0,0,5,0,0,0,0,0,0,0,1084,0,No
17,2,24,0,0,5,0,0,0,0,0,0,0,1674,0,No
2,0,2,0,2,5,0,0,0,0,0,0,0,1716,0,No
6,0,8,0,0,1,0,0,0,0,0,0,0,224,0,No
16,3,16,0,0,7,0,0,0,0,0,0,0,1290,0,No
8,0,11,0,0,5,0,0,0,0,0,0,0,1364,0,No
5,1,7,0,0,5,0,0,0,0,0,0,0,1683,0,No
25,4,33,0,0,5,0,0,0,0,0,0,0,1694,0,No
10,0,10,0,0,1,0,0,0,0,0,0,0,429,0,No
4,0,4,0,0,4,0,0,0,0,0,0,0,1718,0,No
41,7,47,0,0,6,0,0,0,0,0,0,0,1674,0,No
31,3,39,0,2,6,0,0,0,0,0,0,0,1186,0,No
16,1,17,0,0,5,0,0,0,0,0,0,0,1179,0,No
0,1,0,0,0,4,0,0,0,0,0,0,0,1683,0,No
6,4,6,0,2,5,0,0,0,0,0,0,0,1259,0,No
18,5,19,0,0,5,0,0,0,0,0,0,0,1567,0,No
0,1,0,0,0,5,0,0,0,0,0,0,0,1683,0,No
4,1,4,0,0,4,0,0,0,0,0,0,0,1690,0,No
6,1,8,0,0,4,0,0,0,0,0,0,0,1084,0,No
5,2,7,0,0,4,0,0,0,0,0,0,0,1084,0,No
8,1,8,0,0,5,0,0,0,0,0,0,0,1290,0,No
3,0,3,0,0,4,0,0,0,0,0,0,0,1683,0,No
0,1,0,0,0,5,0,0,0,0,0,0,0,1683,0,No
6,4,8,0,1,7,0,0,0,0,0,0,0,1290,0,No
6,2,6,0,0,4,0,0,0,0,0,0,0,1718,0,No
5,0,10,0,0,4,0,0,0,0,0,0,0,1567,0,No
4,0,4,0,0,3,0,0,0,0,0,0,0,1567,0,No
10,4,14,0,0,5,0,0,0,0,0,0,0,1683,0,No
5,3,7,0,0,5,0,0,0,0,0,0,0,1525,0,No
3,2,4,0,0,5,0,0,0,0,0,0,0,1729,0,No
0,1,0,0,1,4,0,0,0,0,0,0,0,1683,0,No
14,4,18,0,0,1,0,0,0,0,0,0,0,219,0,No
11,4,16,0,0,5,0,0,0,0,0,0,0,1683,0,Yes
4,2,4,0,0,4,0,0,0,0,0,0,0,1683,0,No
5,3,7,0,0,5,0,0,0,0,0,0,0,1525,0,No
3,2,4,0,0,5,0,0,0,0,0,0,0,1729,0,No
5,3,7,0,0,5,0,0,0,0,0,0,0,1683,0,No
4,2,4,0,0,4,0,0,0,0,0,0,0,1683,0,No
0,1,0,0,0,4,0,0,0,0,0,0,0,1683,0,No
0,1,0,0,0,4,0,0,0,0,0,0,0,1683,0,No
5,3,7,0,1,7,0,0,0,0,0,0,0,1683,0,No
4,2,4,0,0,4,0,0,0,0,0,0,0,1683,0,No
0,1,0,0,0,4,0,0,0,0,0,0,0,1683,0,No
18,6,43,0,0,6,0,0,0,0,0,0,0,1653,0,No
0,0,0,0,0,3,0,0,0,0,0,0,0,1690,0,No
11,4,16,0,0,5,0,0,0,0,0,0,0,1683,0,Yes
4,1,4,0,0,5,0,0,0,0,0,0,0,1729,0,No
5,3,7,0,0,5,0,0,0,0,0,0,0,1525,0,No
3,2,4,0,0,5,0,0,0,0,0,0,0,1729,0,No
5,3,7,0,0,5,0,0,0,0,0,0,0,1683,0,No
4,1,4,0,0,5,0,0,0,0,0,0,0,1729,0,No
0,1,0,0,0,4,0,0,0,0,0,0,0,1683,0,No
3,2,5,0,0,5,0,0,0,0,0,0,0,1729,0,No
0,1,0,0,0,4,0,0,0,0,0,0,0,1683,0,No
5,3,7,0,0,6,0,0,0,0,0,0,0,1683,0,No
4,1,4,0,0,5,0,0,0,0,0,0,0,1729,0,No
0,1,0,0,0,4,0,0,0,0,0,0,0,1683,0,No
51,18,95,0,1,5,0,0,0,0,0,0,0,1683,0,No
10,4,14,0,0,5,0,0,0,0,0,0,0,1683,0,Yes
5,3,7,0,0,5,0,0,0,0,0,0,0,1525,0,No
3,2,4,0,0,5,0,0,0,0,0,0,0,1729,0,No
4,3,5,0,0,5,0,0,0,0,0,0,0,1683,0,No
0,1,0,0,1,4,0,0,0,0,0,0,0,1683,0,No
3,2,5,0,0,5,0,0,0,0,0,0,0,1729,0,No
0,1,0,0,1,4,0,0,0,0,0,0,0,1683,0,No
4,3,5,0,0,6,0,0,0,0,0,0,0,1683,0,No
0,1,0,0,1,4,0,0,0,0,0,0,0,1683,0,No
3,1,3,0,0,4,0,0,0,0,0,0,0,1729,0,No
4,2,4,0,0,4,0,0,0,0,0,0,0,1729,0,No
5,2,5,0,0,4,0,0,0,0,0,0,0,1729,0,No
5,2,5,0,0,4,0,0,0,0,0,0,0,1729,0,No
4,2,4,0,0,4,0,0,0,0,0,0,0,1729,0,No
2,1,2,0,0,5,0,0,0,0,0,0,0,1690,0,No
4,1,4,0,0,3,0,0,0,0,0,0,0,1690,0,No
5,2,5,0,0,4,0,0,0,0,0,0,0,1729,0,No
5,4,5,0,0,4,0,0,0,0,0,0,0,1729,0,No
6,3,6,0,0,4,0,0,0,0,0,0,0,1729,0,No
5,3,5,0,0,4,0,0,0,0,0,0,0,1729,0,No
5,4,5,0,0,4,0,0,0,0,0,0,0,1729,0,No
0,0,0,0,0,5,0,0,0,0,0,0,0,1690,0,No
4,2,4,0,0,4,0,0,0,0,0,0,0,1290,0,No
9,6,9,0,1,5,0,0,0,0,0,0,0,1690,0,No
7,3,7,0,1,4,0,0,0,0,0,0,0,1729,0,No
7,3,7,0,0,4,0,0,0,0,0,0,0,1729,0,No
8,6,8,0,0,4,0,0,0,0,0,0,0,1729,0,No
22,9,22,0,1,6,0,0,0,0,0,0,0,1729,0,No
5,4,5,0,0,4,0,0,0,0,0,0,0,1729,0,No
4,2,4,0,0,4,0,0,0,0,0,0,0,1729,0,No
4,4,4,0,0,6,0,0,0,0,0,0,0,1729,0,No
5,4,5,0,1,6,0,0,0,0,0,0,0,1729,0,No
10,4,10,0,1,4,0,0,0,0,0,0,0,1729,0,No
8,3,8,0,0,4,0,0,0,0,0,0,0,1729,0,No
15,6,15,0,1,6,0,0,0,0,0,0,0,1729,0,No
5,2,5,0,0,4,0,0,0,0,0,0,0,1729,0,No
5,4,5,0,0,4,0,0,0,0,0,0,0,1729,0,No
3,2,5,0,0,4,0,0,0,0,0,0,0,1718,0,No
4,3,6,0,0,1,0,0,0,0,0,0,0,476,0,No
5,2,7,0,0,4,0,0,0,0,0,0,0,1718,0,Yes
5,8,11,0,1,4,0,0,0,0,0,0,0,1718,0,No
4,6,9,0,0,5,0,0,0,0,0,0,0,1718,0,No
5,2,7,0,0,4,0,0,0,0,0,0,0,1718,0,No
5,10,11,0,0,4,0,0,0,0,0,0,0,1718,0,No
6,5,9,0,0,4,0,0,0,0,0,0,0,1718,0,No
5,4,8,0,0,4,0,0,0,0,0,0,0,1092,0,No
5,5,7,0,0,5,0,0,0,0,0,0,0,1653,0,No
4,3,4,0,0,4,0,0,0,0,0,0,0,1186,0,No
1,0,6,0,2,6,0,0,0,0,0,0,0,1729,0,No
9,9,27,0,0,5,0,0,0,0,0,0,0,1259,0,No
7,4,10,0,2,4,0,0,0,0,0,0,0,1084,0,No
8,4,12,0,0,4,0,0,0,0,0,0,0,1084,0,No
9,19,33,0,0,7,0,0,0,0,0,0,0,1674,0,No
30,36,89,0,2,7,0,0,0,0,0,0,0,1718,0,No
5,12,13,0,0,4,0,0,0,0,0,0,0,1718,0,No
4,5,6,0,0,1,0,0,0,0,0,0,0,132,0,No
11,8,22,0,2,5,0,0,0,0,0,0,0,1718,0,No
9,7,14,0,0,4,0,0,0,0,0,0,0,1718,0,No
18,18,25,0,2,9,0,0,0,0,0,0,0,1473,0,No
5,2,7,0,0,4,0,0,0,0,0,0,0,1718,0,No
5,10,11,0,0,4,0,0,0,0,0,0,0,1718,0,No
4,0,4,0,0,1,0,0,0,0,0,0,0,177,0,No
7,0,11,0,0,1,0,0,0,0,0,0,0,177,0,No
3,0,3,0,0,1,0,0,0,0,0,0,0,177,0,No
7,0,8,0,1,1,0,0,0,0,0,0,0,408,0,No
3,0,3,0,0,1,0,0,0,0,0,0,0,177,0,No
0,0,0,0,0,0,0,0,0,0,0,0,0,0,0,No
2,2,2,0,0,4,0,0,0,0,0,0,0,1700,0,No
1,2,2,0,0,5,0,0,0,0,0,0,0,1729,0,No
1,4,6,0,0,6,0,0,0,0,0,0,0,1729,0,No
1,3,2,0,1,5,0,0,0,0,0,0,0,1700,0,No
0,1,0,0,0,5,0,0,0,0,0,0,0,1729,0,No
0,0,0,0,0,3,0,0,0,0,0,0,0,1729,0,No
1,1,1,0,0,3,0,0,0,0,0,0,0,1700,0,No
0,0,0,0,0,4,0,0,0,0,0,0,0,1525,0,No
2,1,2,0,3,4,0,0,0,0,0,0,0,1729,0,No
0,0,0,0,0,4,0,0,0,0,0,0,0,1525,0,No
0,0,0,0,0,4,0,0,0,0,0,0,0,1525,0,No
0,0,0,0,0,4,0,0,0,0,0,0,0,1525,0,No
1,1,2,0,0,4,0,0,0,0,0,0,0,1525,0,No
0,0,0,0,0,4,0,0,0,0,0,0,0,1525,0,No
4,1,7,0,2,5,0,0,0,0,0,0,0,1525,0,No
0,0,0,0,0,4,0,0,0,0,0,0,0,1290,0,No
1,3,5,0,2,5,0,0,0,0,0,0,0,1186,0,No
0,0,0,0,0,4,0,0,0,0,0,0,0,1525,0,No
0,0,0,0,0,4,0,0,0,0,0,0,0,1290,0,No
0,0,0,0,0,4,0,0,0,0,0,0,0,1290,0,No
0,0,0,0,0,4,0,0,0,0,0,0,0,1290,0,No
0,0,0,0,0,4,0,0,0,0,0,0,0,1525,0,No
0,0,0,0,1,4,0,0,0,0,0,0,0,1525,0,No
2,15,18,0,1,1,0,0,0,0,0,0,0,496,0,No
1,3,8,0,2,5,0,0,0,0,0,0,0,1525,0,No
0,0,0,0,0,4,0,0,0,0,0,0,0,1525,0,No
1,2,3,0,2,3,0,0,0,0,0,0,0,826,0,No
0,0,0,0,0,5,0,0,0,0,0,0,0,1525,0,No
3,14,24,0,2,8,0,0,0,0,0,0,0,1196,0,Yes
1,3,24,0,2,7,0,0,0,0,0,0,0,1189,0,No
0,0,0,0,0,4,0,0,0,0,0,0,0,1690,0,No
12,3,61,0,0,8,0,0,0,0,0,0,0,1246,0,No
0,0,0,0,0,4,0,0,0,0,0,0,0,1690,0,No
0,0,0,0,0,5,0,0,0,0,0,0,0,1690,0,No
1,1,1,0,1,6,0,0,0,0,0,0,0,1189,0,No
18,4,18,0,0,4,0,0,0,0,0,0,0,742,0,No
4,3,4,0,0,4,0,0,0,0,0,0,0,773,0,No
2,2,2,0,0,5,0,0,0,0,0,0,0,1690,0,No
17,1,44,0,1,5,0,0,0,0,0,0,0,1644,0,No
1,0,1,0,1,4,0,0,0,0,0,0,0,1729,0,No
3,3,3,0,0,4,0,0,0,0,0,0,0,1081,0,No
4,2,4,0,2,2,0,0,0,0,0,0,0,829,0,No
0,0,0,0,0,6,0,0,0,0,0,0,0,1690,0,No
4,5,10,0,0,5,0,0,0,0,0,0,0,807,0,No
2,7,11,0,4,4,0,0,0,0,0,0,0,785,0,No
0,0,0,0,0,3,0,0,0,0,0,0,0,1690,0,No
1,0,1,0,1,3,0,0,0,0,0,0,0,1690,0,No
1,0,1,0,1,3,0,0,0,0,0,0,0,1690,0,No
0,0,0,0,0,3,0,0,0,0,0,0,0,1690,0,No
4,1,5,0,1,4,0,0,0,0,0,0,0,1290,0,No
0,0,0,0,0,4,0,0,0,0,0,0,0,1290,0,No
2,1,2,0,0,5,0,0,0,0,0,0,0,1084,0,No
0,1,0,0,0,4,0,0,0,0,0,0,0,1290,0,No
2,2,11,0,1,3,0,0,0,0,0,0,0,1059,0,No
10,0,10,0,0,1,0,0,0,0,0,0,0,455,0,No
1,0,4,0,0,0,0,0,0,0,0,0,0,0,0,No
2,1,4,0,1,5,0,0,0,0,0,0,0,1729,0,No
6,1,6,0,0,5,0,0,0,0,0,0,0,1729,0,No
7,4,7,0,0,7,0,0,0,0,0,0,0,1690,0,No
3,4,4,0,0,4,0,0,0,0,0,0,0,1508,0,No
0,0,0,0,0,7,0,0,0,0,0,0,0,1729,0,No
1,0,1,0,0,4,0,0,0,0,0,0,0,1729,0,No
0,0,0,0,1,2,0,0,0,0,0,0,0,450,0,No
7,11,10,6,0,2,2,2,-2,0,1,6,7,555,0,No
11,6,12,0,2,6,0,0,0,0,0,0,0,1179,0,No
2,2,2,0,0,4,0,0,0,0,0,0,0,1690,0,No
3,11,5,0,0,4,0,0,0,0,0,0,0,1654,0,No
5,11,36,0,0,6,0,0,0,0,0,0,0,1669,0,No
2,2,2,0,0,5,0,0,0,0,0,0,0,1690,0,No
3,3,3,0,1,5,0,0,0,0,0,0,0,1186,0,No
4,18,38,0,3,5,0,0,0,0,0,0,0,1245,0,No
13,24,57,0,4,6,0,0,0,0,0,0,0,1667,0,No
12,14,20,0,3,5,0,0,0,0,0,0,0,1681,0,No
1,2,1,0,0,0,0,0,0,0,0,0,0,0,0,No
5,10,29,0,0,1,0,0,0,0,0,0,0,219,0,No
3,3,3,0,0,1,0,0,0,0,0,0,0,132,0,No
7,0,9,0,0,4,0,0,0,0,0,0,0,1696,0,No
2,2,4,0,0,4,0,0,0,0,0,0,0,878,0,No
1,8,10,0,2,4,0,0,0,0,0,0,0,1505,0,No
1,1,4,0,0,1,0,0,0,0,0,0,0,423,0,No
8,7,8,0,1,4,0,0,0,0,0,0,0,741,0,No
13,10,15,0,1,5,0,0,0,0,0,0,0,740,0,No
2,4,2,0,0,5,0,0,0,0,0,0,0,1729,0,No
5,4,5,0,1,3,0,0,0,0,0,0,0,735,0,No
7,10,19,0,2,4,0,0,0,0,0,0,0,736,0,No
14,11,15,0,2,3,0,0,0,0,0,0,0,735,0,No
18,14,32,0,5,4,0,0,0,0,0,0,0,734,0,No
5,6,5,0,0,4,0,0,0,0,0,0,0,737,0,No
6,4,6,0,1,3,0,0,0,0,0,0,0,735,0,No
16,19,21,0,2,5,0,0,0,0,0,0,0,730,0,No
7,7,10,0,1,4,0,0,0,0,0,0,0,735,0,No
18,17,32,0,5,6,0,0,0,0,0,0,0,731,0,No
6,4,6,0,1,7,0,0,0,0,0,0,0,1729,0,No
6,5,16,0,1,3,0,0,0,0,0,0,0,728,0,No
1,1,1,0,1,6,0,0,0,0,0,0,0,1690,0,No
10,3,10,0,0,2,0,0,0,0,0,0,0,217,0,No
15,3,20,0,0,6,0,0,0,0,0,0,0,1182,0,No
2,12,2,0,0,2,0,0,0,0,0,0,0,387,0,No
7,28,29,0,3,5,0,0,0,0,0,0,0,766,0,No
10,10,15,0,1,2,0,0,0,0,0,0,0,217,0,No
10,10,15,0,0,1,0,0,0,0,0,0,0,217,0,No
3,0,3,0,0,3,0,0,0,0,0,0,0,1729,0,No
1,0,16,0,0,1,0,0,0,0,0,0,0,211,0,No
13,1,16,0,2,1,0,0,0,0,0,0,0,700,0,No
1,0,2,0,0,4,0,0,0,0,0,0,0,1729,0,No
0,0,0,0,0,5,0,0,0,0,0,0,0,1690,0,No
2,0,4,0,1,2,0,0,0,0,0,0,0,211,0,No
8,0,10,0,0,1,0,0,0,0,0,0,0,178,0,No
1,0,9,0,1,2,0,0,0,0,0,0,0,211,0,No
1,1,7,0,1,1,0,0,0,0,0,0,0,92,0,No
1,0,5,0,1,1,0,0,0,0,0,0,0,673,0,No
9,0,10,49,0,2,35,18,21,17,2,2,2,178,0,No
2,0,4,0,0,4,0,0,0,0,0,0,0,1729,0,No
2,0,2,0,0,5,0,0,0,0,0,0,0,1690,0,No
14,0,18,0,1,5,0,0,0,0,0,0,0,1113,0,No
9,3,9,6,2,5,2,2,-2,0,1,6,7,807,0,No
0,0,0,0,1,6,0,0,0,0,0,0,0,1690,0,No
0,1,0,0,1,5,0,0,0,0,0,0,0,1290,0,No
3,0,3,0,1,6,0,0,0,0,0,0,0,1690,0,No
9,1,9,0,1,4,0,0,0,0,0,0,0,1179,0,Yes
0,0,0,0,0,3,0,0,0,0,0,0,0,1690,0,No
5,9,5,0,0,4,0,0,0,0,0,0,0,807,0,No
12,11,12,4,1,4,2,2,0,0,1,6,7,807,0,No
4,7,4,0,0,3,0,0,0,0,0,0,0,807,0,No
19,9,19,0,1,9,0,0,0,0,0,0,0,1197,0,No
18,13,25,4,6,8,2,2,0,0,1,6,7,1214,0,No
1,1,1,0,0,3,0,0,0,0,0,0,0,1290,0,No
1,0,1,0,0,3,0,0,0,0,0,0,0,1290,0,No
4,0,4,0,0,3,0,0,0,0,0,0,0,1290,0,No
1,1,1,0,1,4,0,0,0,0,0,0,0,1290,0,No
1,2,2,0,1,4,0,0,0,0,0,0,0,1203,0,No
1,3,1,0,0,3,0,0,0,0,0,0,0,1203,0,No
1,5,2,0,0,5,0,0,0,0,0,0,0,1203,0,No
1,3,2,0,0,3,0,0,0,0,0,0,0,1203,0,No
1,5,3,0,0,5,0,0,0,0,0,0,0,1203,0,No
3,0,3,0,1,1,0,0,0,0,0,0,0,212,0,No
1,0,2,0,0,1,0,0,0,0,0,0,0,212,0,No
18,9,20,6,2,1,4,4,2,2,1,3,4,546,0,No
2,0,4,4,1,1,2,2,0,0,1,3,4,605,0,No
3,4,3,0,0,4,0,0,0,0,0,0,0,1778,0,No
7,1,14,0,0,1,0,0,0,0,0,0,0,226,0,No
11,1,13,0,0,1,0,0,0,0,0,0,0,293,0,No
0,0,0,0,0,5,0,0,0,0,0,0,0,1339,0,No
0,1,0,0,0,4,0,0,0,0,0,0,0,1339,0,No
0,0,0,0,0,4,0,0,0,0,0,0,0,1339,0,No
9,1,14,0,0,5,0,0,0,0,0,0,0,1694,0,No
3,0,5,0,0,5,0,0,0,0,0,0,0,1778,0,No
5,1,6,0,0,4,0,0,0,0,0,0,0,1694,0,No
3,0,4,0,0,5,0,0,0,0,0,0,0,1778,0,No
2,1,2,0,1,4,0,0,0,0,0,0,0,1778,0,No
5,2,5,0,0,2,0,0,0,0,0,0,0,445,0,No
46,0,65,0,1,4,0,0,0,0,0,0,0,1714,0,No
9,1,9,0,0,2,0,0,0,0,0,0,0,806,0,No
13,0,20,0,0,5,0,0,0,0,0,0,0,1694,0,No
0,1,0,0,0,0,0,0,0,0,0,0,0,0,0,No
0,0,0,0,0,0,0,0,0,0,0,0,0,0,0,No
2,1,2,0,0,5,0,0,0,0,0,0,0,1339,0,No
1,0,1,0,0,4,0,0,0,0,0,0,0,1133,0,No
6,2,6,0,0,5,0,0,0,0,0,0,0,1133,0,No
11,1,13,0,0,3,0,0,0,0,0,0,0,1108,0,No
6,2,6,0,0,5,0,0,0,0,0,0,0,1133,0,No
0,1,0,0,0,0,0,0,0,0,0,0,0,0,0,No
3,1,3,0,0,0,0,0,0,0,0,0,0,0,0,No
5,2,5,0,0,1,0,0,0,0,0,0,0,454,0,No
11,1,11,0,0,0,0,0,0,0,0,0,0,0,0,No
0,1,0,0,0,1,0,0,0,0,0,0,0,440,0,No
7,0,7,0,0,1,0,0,0,0,0,0,0,458,0,No
2,0,2,0,0,3,0,0,0,0,0,0,0,1739,0,No
2,0,4,0,0,0,0,0,0,0,0,0,0,0,0,No
11,0,11,0,1,2,0,0,0,0,0,0,0,458,0,No
9,0,9,0,1,2,0,0,0,0,0,0,0,458,0,No
2,0,2,0,1,2,0,0,0,0,0,0,0,458,0,No
7,4,7,0,1,3,0,0,0,0,0,0,0,805,0,No
13,7,13,0,1,3,0,0,0,0,0,0,0,805,0,No
2,1,2,0,0,4,0,0,0,0,0,0,0,1778,0,No
5,1,5,0,0,4,0,0,0,0,0,0,0,800,0,No
7,3,7,0,3,3,0,0,0,0,0,0,0,801,0,No
13,5,13,0,2,3,0,0,0,0,0,0,0,804,0,No
10,8,10,0,0,3,0,0,0,0,0,0,0,804,0,No
18,8,18,0,3,4,0,0,0,0,0,0,0,806,0,No
5,3,5,0,0,3,0,0,0,0,0,0,0,800,0,No
6,1,6,0,0,4,0,0,0,0,0,0,0,800,0,No
16,11,16,0,3,4,0,0,0,0,0,0,0,801,0,No
7,2,7,0,1,7,0,0,0,0,0,0,0,1778,0,No
18,10,18,0,3,6,0,0,0,0,0,0,0,806,0,No
4,2,4,0,1,4,0,0,0,0,0,0,0,805,0,No
6,0,8,0,0,7,0,0,0,0,0,0,0,1745,0,No
10,1,14,0,0,4,0,0,0,0,0,0,0,1616,0,No
8,2,8,0,0,4,0,0,0,0,0,0,0,1778,0,No
2,1,2,0,0,4,0,0,0,0,0,0,0,1778,0,No
3,0,7,0,0,5,0,0,0,0,0,0,0,1778,0,No
15,2,15,0,0,5,0,0,0,0,0,0,0,1339,0,No
9,1,11,0,0,2,0,0,0,0,0,0,0,602,0,No
9,1,13,0,0,6,0,0,0,0,0,0,0,1616,0,No
3,2,3,0,0,4,0,0,0,0,0,0,0,1778,0,No
5,1,5,0,0,5,0,0,0,0,0,0,0,1778,0,No
0,0,0,0,0,1,0,0,0,0,0,0,0,440,0,No
11,2,11,0,0,4,0,0,0,0,0,0,0,1716,0,No
19,3,21,0,0,7,0,0,0,0,0,0,0,1718,0,No
2,0,3,0,1,6,0,0,0,0,0,0,0,1154,0,No
10,1,10,0,0,1,0,0,0,0,0,0,0,478,0,No
2,0,2,0,0,4,0,0,0,0,0,0,0,1735,0,No
7,2,8,0,2,2,0,0,0,0,0,0,0,499,0,No
4,2,4,0,0,4,0,0,0,0,0,0,0,1778,0,No
16,3,16,0,0,6,0,0,0,0,0,0,0,1723,0,No
4,0,4,0,0,5,0,0,0,0,0,0,0,1778,0,No
26,3,26,0,0,7,0,0,0,0,0,0,0,1235,0,No
13,1,13,0,0,6,0,0,0,0,0,0,0,1228,0,No
2,2,2,0,0,4,0,0,0,0,0,0,0,1778,0,No
18,3,18,0,0,4,0,0,0,0,0,0,0,1616,0,No
4,0,4,0,0,2,0,0,0,0,0,0,0,440,0,No
2,0,2,0,0,4,0,0,0,0,0,0,0,1339,0,No
18,2,26,0,0,5,0,0,0,0,0,0,0,1133,0,No
40,3,40,0,1,5,0,0,0,0,0,0,0,1714,0,No
35,0,39,0,1,5,0,0,0,0,0,0,0,1707,0,No
12,0,16,0,0,5,0,0,0,0,0,0,0,1778,0,No
24,2,25,0,0,6,0,0,0,0,0,0,0,1778,0,No
4,1,4,0,0,4,0,0,0,0,0,0,0,1778,0,No
2,2,2,0,0,4,0,0,0,0,0,0,0,1778,0,No
6,0,6,0,0,5,0,0,0,0,0,0,0,1339,0,No
2,0,2,0,0,4,0,0,0,0,0,0,0,1616,0,No
2,0,2,0,0,5,0,0,0,0,0,0,0,1778,0,No
17,2,17,0,0,4,0,0,0,0,0,0,0,1241,0,No
0,1,0,0,0,0,0,0,0,0,0,0,0,0,0,No
18,1,22,0,0,5,0,0,0,0,0,0,0,1739,0,No
0,0,0,0,0,5,0,0,0,0,0,0,0,1739,0,No
7,4,10,0,2,3,0,0,0,0,0,0,0,1092,0,No
2,0,2,0,0,6,0,0,0,0,0,0,0,1739,0,No
1,0,1,0,0,4,0,0,0,0,0,0,0,1739,0,No
0,0,0,0,0,5,0,0,0,0,0,0,0,1739,0,No
2,0,2,0,2,3,0,0,0,0,0,0,0,1065,0,No
2,0,2,0,0,4,0,0,0,0,0,0,0,1739,0,No
1,0,1,0,0,5,0,0,0,0,0,0,0,1739,0,No
0,0,0,0,1,3,0,0,0,0,0,0,0,759,0,No
46,1,50,0,0,7,0,0,0,0,0,0,0,1308,0,No
0,0,0,0,0,4,0,0,0,0,0,0,0,1739,0,No
0,0,0,0,0,5,0,0,0,0,0,0,0,1339,0,No
0,0,0,0,0,4,0,0,0,0,0,0,0,1739,0,No
0,0,0,0,0,5,0,0,0,0,0,0,0,1739,0,No
0,0,0,0,0,5,0,0,0,0,0,0,0,1739,0,No
0,0,0,0,1,6,0,0,0,0,0,0,0,1739,0,No
1,0,2,0,0,5,0,0,0,0,0,0,0,1739,0,No
8,2,9,0,0,8,0,0,0,0,0,0,0,1739,0,No
0,0,0,0,0,4,0,0,0,0,0,0,0,1739,0,No
0,0,0,0,0,4,0,0,0,0,0,0,0,1339,0,No
2,0,2,0,0,0,0,0,0,0,0,0,0,0,0,No
0,1,0,0,0,4,0,0,0,0,0,0,0,1739,0,No
10,13,70,0,1,7,0,0,0,0,0,0,0,1221,0,No
0,0,0,0,0,1,0,0,0,0,0,0,0,440,0,No
0,0,0,0,0,1,0,0,0,0,0,0,0,440,0,No
0,0,0,0,0,1,0,0,0,0,0,0,0,440,0,No
0,0,0,0,0,1,0,0,0,0,0,0,0,440,0,No
0,0,0,0,0,1,0,0,0,0,0,0,0,440,0,No
0,0,0,0,0,2,0,0,0,0,0,0,0,440,0,No
0,0,0,0,0,1,0,0,0,0,0,0,0,440,0,No
0,0,0,0,0,1,0,0,0,0,0,0,0,440,0,No
0,0,0,0,1,6,0,0,0,0,0,0,0,1739,0,No
0,0,0,0,0,1,0,0,0,0,0,0,0,440,0,No
0,0,0,0,0,1,0,0,0,0,0,0,0,440,0,No
0,1,0,0,0,1,0,0,0,0,0,0,0,440,0,No
14,20,29,0,2,6,0,0,0,0,0,0,0,1739,0,No
22,3,28,0,3,8,0,0,0,0,0,0,0,1739,0,No
1,0,1,0,0,1,0,0,0,0,0,0,0,528,0,No
5,1,14,0,0,2,0,0,0,0,0,0,0,146,0,No
3,0,3,0,0,2,0,0,0,0,0,0,0,940,0,No
0,0,0,0,0,3,0,0,0,0,0,0,0,671,0,No
0,0,0,0,0,2,0,0,0,0,0,0,0,671,0,No
0,0,0,0,0,4,0,0,0,0,0,0,0,1739,0,No
6,0,9,0,0,4,0,0,0,0,0,0,0,1120,0,No
2,0,2,0,0,5,0,0,0,0,0,0,0,1339,0,No
0,0,0,0,0,3,0,0,0,0,0,0,0,1739,0,No
1,6,3,0,1,4,0,0,0,0,0,0,0,1408,0,No
2,0,3,0,0,3,0,0,0,0,0,0,0,1778,0,No
2,0,7,0,1,5,0,0,0,0,0,0,0,1458,0,No
3,0,16,0,0,6,0,0,0,0,0,0,0,1567,0,No
5,1,5,0,0,1,0,0,0,0,0,0,0,505,0,No
3,2,3,0,0,4,0,0,0,0,0,0,0,1778,0,No
12,3,12,0,0,4,0,0,0,0,0,0,0,1778,0,No
2,0,6,0,0,1,0,0,0,0,0,0,0,262,0,No
1,0,1,0,1,7,0,0,0,0,0,0,0,1778,0,No
2,0,4,0,0,1,0,0,0,0,0,0,0,777,0,No
2,8,15,0,1,1,0,0,0,0,0,0,0,139,0,No
4,13,4,0,2,6,0,0,0,0,0,0,0,1739,0,No
2,2,2,0,0,5,0,0,0,0,0,0,0,1408,0,No
0,0,0,0,0,2,0,0,0,0,0,0,0,528,0,No
8,8,9,0,1,8,0,0,0,0,0,0,0,1338,0,No
0,0,0,0,0,4,0,0,0,0,0,0,0,1739,0,No
0,1,0,0,1,5,0,0,0,0,0,0,0,1739,0,No
0,0,0,0,1,5,0,0,0,0,0,0,0,1739,0,No
4,2,4,0,0,3,0,0,0,0,0,0,0,737,0,No
3,5,13,0,0,2,0,0,0,0,0,0,0,743,0,No
2,9,5,0,7,6,0,0,0,0,0,0,0,1133,0,No
0,0,0,0,1,3,0,0,0,0,0,0,0,1739,0,No
0,0,0,0,0,3,0,0,0,0,0,0,0,1339,0,No
0,0,0,0,0,1,0,0,0,0,0,0,0,608,0,No
0,0,0,0,0,3,0,0,0,0,0,0,0,1739,0,No
0,1,0,0,0,5,0,0,0,0,0,0,0,1737,0,No
0,3,0,0,1,6,0,0,0,0,0,0,0,1228,0,No
0,2,0,0,1,4,0,0,0,0,0,0,0,1408,0,No
5,8,8,0,0,2,0,0,0,0,0,0,0,272,0,No
3,3,3,0,0,4,0,0,0,0,0,0,0,1120,0,No
1,3,1,0,0,5,0,0,0,0,0,0,0,1408,0,No
2,2,3,0,0,7,0,0,0,0,0,0,0,1338,0,No
2,5,3,0,1,8,0,0,0,0,0,0,0,1338,0,No
2,5,4,0,0,6,0,0,0,0,0,0,0,1408,0,No
2,3,2,0,0,5,0,0,0,0,0,0,0,1408,0,No
2,1,2,0,0,5,0,0,0,0,0,0,0,1408,0,No
2,3,2,0,0,6,0,0,0,0,0,0,0,1739,0,No
6,10,12,0,0,1,0,0,0,0,0,0,0,272,0,No
0,3,0,0,1,3,0,0,0,0,0,0,0,671,0,No
0,3,0,0,0,6,0,0,0,0,0,0,0,1133,0,No
10,6,10,0,0,1,0,0,0,0,0,0,0,528,0,No
1,0,1,0,0,1,0,0,0,0,0,0,0,528,0,No
2,0,2,0,0,4,0,0,0,0,0,0,0,1739,0,No
11,14,33,0,6,7,0,0,0,0,0,0,0,1323,0,No
3,1,7,0,1,2,0,0,0,0,0,0,0,317,0,No
13,0,13,0,0,0,0,0,0,0,0,0,0,0,0,No
3,5,4,0,2,5,0,0,0,0,0,0,0,871,0,No
10,1,14,0,2,2,0,0,0,0,0,0,0,499,0,No
0,3,0,0,0,6,0,0,0,0,0,0,0,1133,0,No
2,2,5,0,0,1,0,0,0,0,0,0,0,262,0,No
1,1,2,0,0,1,0,0,0,0,0,0,0,262,0,No
2,1,2,0,1,1,0,0,0,0,0,0,0,482,0,No
1,1,5,0,0,1,0,0,0,0,0,0,0,482,0,No
3,2,3,0,2,6,0,0,0,0,0,0,0,1238,0,No
2,2,2,0,1,5,0,0,0,0,0,0,0,1535,0,No
5,3,7,0,1,5,0,0,0,0,0,0,0,1778,0,No
7,7,14,0,1,6,0,0,0,0,0,0,0,1687,0,No
2,0,2,0,0,4,0,0,0,0,0,0,0,1739,0,No
8,7,11,0,1,6,0,0,0,0,0,0,0,1687,0,No
5,2,5,0,1,6,0,0,0,0,0,0,0,1228,0,No
11,5,13,0,2,6,0,0,0,0,0,0,0,1120,0,No
8,11,12,0,0,6,0,0,0,0,0,0,0,1708,0,No
17,14,17,0,4,7,0,0,0,0,0,0,0,1708,0,No
21,12,41,0,2,8,0,0,0,0,0,0,0,1778,0,No
5,2,5,0,0,1,0,0,0,0,0,0,0,178,0,No
18,15,26,0,2,8,0,0,0,0,0,0,0,1603,0,No
18,17,19,0,3,8,0,0,0,0,0,0,0,1729,0,No
4,0,4,0,0,1,0,0,0,0,0,0,0,1120,0,No
3,1,5,0,1,2,0,0,0,0,0,0,0,759,0,No
3,1,5,0,1,4,0,0,0,0,0,0,0,1458,0,No
2,0,2,0,1,4,0,0,0,0,0,0,0,1458,0,No
3,2,6,0,0,2,0,0,0,0,0,0,0,737,0,No
1,2,10,0,1,4,0,0,0,0,0,0,0,1225,0,No
0,0,0,0,0,4,0,0,0,0,0,0,0,1739,0,No
0,1,0,0,0,4,0,0,0,0,0,0,0,1739,0,No
3,0,3,0,0,5,0,0,0,0,0,0,0,1228,0,No
1,0,2,0,1,4,0,0,0,0,0,0,0,1739,0,No
1,0,2,0,1,5,0,0,0,0,0,0,0,1228,0,No
1,1,2,0,0,4,0,0,0,0,0,0,0,1228,0,No
1,2,3,0,0,4,0,0,0,0,0,0,0,1228,0,No
1,0,1,0,0,4,0,0,0,0,0,0,0,1739,0,No
32,3,82,0,2,5,0,0,0,0,0,0,0,1147,0,No
8,1,25,0,2,8,0,0,0,0,0,0,0,1687,0,No
2,1,2,0,0,3,0,0,0,0,0,0,0,1497,0,No
3,1,3,0,1,5,0,0,0,0,0,0,0,1295,0,No
2,1,3,0,1,5,0,0,0,0,0,0,0,1687,0,No
1,0,1,0,0,4,0,0,0,0,0,0,0,1739,0,No
6,1,30,0,2,7,0,0,0,0,0,0,0,1295,0,No
20,0,30,0,5,7,0,0,0,0,0,0,0,1295,0,No
0,0,0,0,0,3,0,0,0,0,0,0,0,1739,0,No
5,1,9,0,0,1,0,0,0,0,0,0,0,297,0,No
1,0,1,0,2,1,0,0,0,0,0,0,0,769,0,No
1,0,1,0,0,5,0,0,0,0,0,0,0,1739,0,No
1,1,5,0,0,1,0,0,0,0,0,0,0,262,0,No
2,1,2,0,0,1,0,0,0,0,0,0,0,262,0,No
1,0,1,0,0,5,0,0,0,0,0,0,0,1739,0,No
1,0,1,0,0,5,0,0,0,0,0,0,0,1339,0,No
6,4,7,0,0,4,0,0,0,0,0,0,0,1224,0,No
1,1,1,0,0,4,0,0,0,0,0,0,0,1339,0,No
2,0,2,0,0,3,0,0,0,0,0,0,0,730,0,No
2,0,4,0,0,2,0,0,0,0,0,0,0,261,0,No
4,1,4,0,0,5,0,0,0,0,0,0,0,1339,0,No
5,1,14,0,1,2,0,0,0,0,0,0,0,764,0,No
4,1,4,0,0,1,0,0,0,0,0,0,0,87,0,No
6,1,6,0,1,3,0,0,0,0,0,0,0,764,0,No
7,0,8,0,0,4,0,0,0,0,0,0,0,1778,0,No
3,2,13,0,0,1,0,0,0,0,0,0,0,478,0,No
1,5,10,0,1,5,0,0,0,0,0,0,0,1141,0,No
1,2,1,0,1,6,0,0,0,0,0,0,0,1394,0,No
2,1,2,0,1,5,0,0,0,0,0,0,0,1339,0,No
1,2,2,0,0,2,0,0,0,0,0,0,0,602,0,No
11,3,16,0,0,6,0,0,0,0,0,0,0,1732,0,No
4,1,4,11,2,3,0,0,-11,0,1,4,6,1778,0,No
2,0,2,0,0,3,0,0,0,0,0,0,0,1739,0,No
20,7,68,0,2,5,0,0,0,0,0,0,0,1767,0,Yes
19,0,37,0,1,4,0,0,0,0,0,0,0,1732,0,No
5,1,5,0,2,6,0,0,0,0,0,0,0,1752,0,No
8,0,13,0,0,5,0,0,0,0,0,0,0,1133,0,No
17,2,24,0,0,5,0,0,0,0,0,0,0,1723,0,No
2,0,2,0,2,5,0,0,0,0,0,0,0,1765,0,No
6,0,8,0,0,1,0,0,0,0,0,0,0,273,0,No
16,3,16,0,0,7,0,0,0,0,0,0,0,1339,0,No
8,0,11,0,0,5,0,0,0,0,0,0,0,1413,0,No
5,1,7,0,0,5,0,0,0,0,0,0,0,1732,0,No
25,4,33,0,0,5,0,0,0,0,0,0,0,1743,0,No
10,0,10,0,0,1,0,0,0,0,0,0,0,478,0,No
4,0,4,0,0,4,0,0,0,0,0,0,0,1767,0,No
41,7,47,0,0,6,0,0,0,0,0,0,0,1723,0,No
31,3,39,0,2,6,0,0,0,0,0,0,0,1235,0,No
16,1,17,0,0,5,0,0,0,0,0,0,0,1228,0,No
0,1,0,0,0,4,0,0,0,0,0,0,0,1732,0,No
6,4,6,0,2,5,0,0,0,0,0,0,0,1308,0,No
18,5,19,0,0,5,0,0,0,0,0,0,0,1616,0,No
0,1,0,0,0,5,0,0,0,0,0,0,0,1732,0,No
4,1,4,0,0,4,0,0,0,0,0,0,0,1739,0,No
6,1,8,0,0,4,0,0,0,0,0,0,0,1133,0,No
5,2,7,0,0,4,0,0,0,0,0,0,0,1133,0,No
8,1,8,0,0,5,0,0,0,0,0,0,0,1339,0,No
3,0,3,0,0,4,0,0,0,0,0,0,0,1732,0,No
0,1,0,0,0,5,0,0,0,0,0,0,0,1732,0,No
6,4,8,0,1,7,0,0,0,0,0,0,0,1339,0,No
6,2,6,0,0,4,0,0,0,0,0,0,0,1767,0,No
5,0,10,0,0,4,0,0,0,0,0,0,0,1616,0,No
4,0,4,0,0,3,0,0,0,0,0,0,0,1616,0,No
10,4,14,0,0,5,0,0,0,0,0,0,0,1732,0,No
5,3,7,0,0,5,0,0,0,0,0,0,0,1574,0,No
3,2,4,0,0,5,0,0,0,0,0,0,0,1778,0,No
0,1,0,0,1,4,0,0,0,0,0,0,0,1732,0,No
14,4,18,0,0,1,0,0,0,0,0,0,0,268,0,No
11,4,16,5,0,5,1,1,-3,0,1,1,1,1732,0,Yes
5,2,5,8,1,4,8,8,8,8,1,4,6,1732,0,No
5,3,7,0,0,5,0,0,0,0,0,0,0,1574,0,No
3,2,4,0,0,5,0,0,0,0,0,0,0,1778,0,No
5,3,7,0,0,5,0,0,0,0,0,0,0,1732,0,No
4,2,4,0,0,4,0,0,0,0,0,0,0,1732,0,No
0,1,0,0,0,4,0,0,0,0,0,0,0,1732,0,No
0,1,0,0,0,4,0,0,0,0,0,0,0,1732,0,No
5,3,7,0,1,7,0,0,0,0,0,0,0,1732,0,No
4,2,4,0,0,4,0,0,0,0,0,0,0,1732,0,No
0,1,0,0,0,4,0,0,0,0,0,0,0,1732,0,No
18,6,43,0,0,6,0,0,0,0,0,0,0,1702,0,No
0,0,0,0,0,3,0,0,0,0,0,0,0,1739,0,No
11,4,16,0,0,5,0,0,0,0,0,0,0,1732,0,Yes
5,1,5,8,1,5,8,8,8,8,1,4,6,1778,0,No
5,3,7,0,0,5,0,0,0,0,0,0,0,1574,0,No
3,2,4,0,0,5,0,0,0,0,0,0,0,1778,0,No
5,3,7,0,0,5,0,0,0,0,0,0,0,1732,0,No
4,1,4,0,0,5,0,0,0,0,0,0,0,1778,0,No
0,1,0,0,0,4,0,0,0,0,0,0,0,1732,0,No
3,2,5,0,0,5,0,0,0,0,0,0,0,1778,0,No
0,1,0,0,0,4,0,0,0,0,0,0,0,1732,0,No
5,3,7,0,0,6,0,0,0,0,0,0,0,1732,0,No
4,1,4,0,0,5,0,0,0,0,0,0,0,1778,0,No
0,1,0,0,0,4,0,0,0,0,0,0,0,1732,0,No
51,18,95,0,1,5,0,0,0,0,0,0,0,1732,0,No
10,4,14,0,0,5,0,0,0,0,0,0,0,1732,0,Yes
5,3,7,0,0,5,0,0,0,0,0,0,0,1574,0,No
3,2,4,0,0,5,0,0,0,0,0,0,0,1778,0,No
4,3,5,0,0,5,0,0,0,0,0,0,0,1732,0,No
0,1,0,0,1,4,0,0,0,0,0,0,0,1732,0,No
3,2,5,0,0,5,0,0,0,0,0,0,0,1778,0,No
0,1,0,0,1,4,0,0,0,0,0,0,0,1732,0,No
4,3,5,0,0,6,0,0,0,0,0,0,0,1732,0,No
0,1,0,0,1,4,0,0,0,0,0,0,0,1732,0,No
3,1,3,0,0,4,0,0,0,0,0,0,0,1778,0,No
4,2,4,0,0,4,0,0,0,0,0,0,0,1778,0,No
5,2,5,0,0,4,0,0,0,0,0,0,0,1778,0,No
5,2,5,0,0,4,0,0,0,0,0,0,0,1778,0,No
4,2,4,0,0,4,0,0,0,0,0,0,0,1778,0,No
2,1,2,0,0,5,0,0,0,0,0,0,0,1739,0,No
4,1,4,0,0,3,0,0,0,0,0,0,0,1739,0,No
5,2,5,0,0,4,0,0,0,0,0,0,0,1778,0,No
5,4,5,0,0,4,0,0,0,0,0,0,0,1778,0,No
6,3,6,0,0,4,0,0,0,0,0,0,0,1778,0,No
5,3,5,0,0,4,0,0,0,0,0,0,0,1778,0,No
5,4,5,0,0,4,0,0,0,0,0,0,0,1778,0,No
0,0,0,0,0,5,0,0,0,0,0,0,0,1739,0,No
4,2,4,0,0,4,0,0,0,0,0,0,0,1339,0,No
9,6,9,0,1,5,0,0,0,0,0,0,0,1739,0,No
7,3,7,0,1,4,0,0,0,0,0,0,0,1778,0,No
7,3,7,0,0,4,0,0,0,0,0,0,0,1778,0,No
8,6,8,0,0,4,0,0,0,0,0,0,0,1778,0,No
22,9,22,0,1,6,0,0,0,0,0,0,0,1778,0,No
5,4,5,0,0,4,0,0,0,0,0,0,0,1778,0,No
4,2,4,0,0,4,0,0,0,0,0,0,0,1778,0,No
4,4,4,0,0,6,0,0,0,0,0,0,0,1778,0,No
5,4,5,0,1,6,0,0,0,0,0,0,0,1778,0,No
10,4,10,0,1,4,0,0,0,0,0,0,0,1778,0,No
8,3,8,0,0,4,0,0,0,0,0,0,0,1778,0,No
15,6,15,0,1,6,0,0,0,0,0,0,0,1778,0,No
5,2,5,0,0,4,0,0,0,0,0,0,0,1778,0,No
5,4,5,0,0,4,0,0,0,0,0,0,0,1778,0,No
3,2,5,0,0,4,0,0,0,0,0,0,0,1767,0,No
4,3,6,0,0,1,0,0,0,0,0,0,0,525,0,No
5,2,7,0,0,4,0,0,0,0,0,0,0,1767,0,Yes
5,8,11,0,1,4,0,0,0,0,0,0,0,1767,0,No
4,6,9,0,0,5,0,0,0,0,0,0,0,1767,0,No
5,2,7,0,0,4,0,0,0,0,0,0,0,1767,0,No
5,10,11,0,0,4,0,0,0,0,0,0,0,1767,0,No
6,5,9,0,0,4,0,0,0,0,0,0,0,1767,0,No
5,4,8,0,0,4,0,0,0,0,0,0,0,1141,0,No
5,5,7,0,0,5,0,0,0,0,0,0,0,1702,0,No
4,3,4,0,0,4,0,0,0,0,0,0,0,1235,0,No
1,0,6,0,2,6,0,0,0,0,0,0,0,1778,0,No
9,9,27,0,0,5,0,0,0,0,0,0,0,1308,0,No
7,4,10,0,2,4,0,0,0,0,0,0,0,1133,0,No
8,4,12,0,0,4,0,0,0,0,0,0,0,1133,0,No
9,19,33,0,0,7,0,0,0,0,0,0,0,1723,0,No
30,36,89,0,2,7,0,0,0,0,0,0,0,1767,0,No
5,12,13,0,0,4,0,0,0,0,0,0,0,1767,0,No
4,5,6,0,0,1,0,0,0,0,0,0,0,181,0,No
11,8,22,0,2,5,0,0,0,0,0,0,0,1767,0,No
9,7,14,0,0,4,0,0,0,0,0,0,0,1767,0,No
18,18,25,0,2,9,0,0,0,0,0,0,0,1522,0,Yes
5,2,7,0,0,4,0,0,0,0,0,0,0,1767,0,No
5,10,11,0,0,4,0,0,0,0,0,0,0,1767,0,No
4,0,4,0,0,1,0,0,0,0,0,0,0,226,0,No
7,0,11,0,0,1,0,0,0,0,0,0,0,226,0,No
3,0,3,0,0,1,0,0,0,0,0,0,0,226,0,No
7,0,8,0,1,1,0,0,0,0,0,0,0,457,0,No
3,0,3,0,0,1,0,0,0,0,0,0,0,226,0,No
0,0,0,0,0,0,0,0,0,0,0,0,0,0,0,No
2,2,2,0,0,4,0,0,0,0,0,0,0,1749,0,No
1,2,2,0,0,5,0,0,0,0,0,0,0,1778,0,No
1,4,6,0,0,6,0,0,0,0,0,0,0,1778,0,No
1,3,2,0,1,5,0,0,0,0,0,0,0,1749,0,No
0,1,0,0,0,5,0,0,0,0,0,0,0,1778,0,No
0,0,0,0,0,3,0,0,0,0,0,0,0,1778,0,No
1,1,1,0,0,3,0,0,0,0,0,0,0,1749,0,No
0,0,0,0,0,4,0,0,0,0,0,0,0,1574,0,No
2,1,2,0,3,4,0,0,0,0,0,0,0,1778,0,No
0,0,0,0,0,4,0,0,0,0,0,0,0,1574,0,No
0,0,0,0,0,4,0,0,0,0,0,0,0,1574,0,No
0,0,0,0,0,4,0,0,0,0,0,0,0,1574,0,No
1,1,2,0,0,4,0,0,0,0,0,0,0,1574,0,No
0,0,0,0,0,4,0,0,0,0,0,0,0,1574,0,No
4,1,7,0,2,5,0,0,0,0,0,0,0,1574,0,No
0,0,0,0,0,4,0,0,0,0,0,0,0,1339,0,No
1,3,5,0,2,5,0,0,0,0,0,0,0,1235,0,No
0,0,0,0,0,4,0,0,0,0,0,0,0,1574,0,No
0,0,0,0,0,4,0,0,0,0,0,0,0,1339,0,No
0,0,0,0,0,4,0,0,0,0,0,0,0,1339,0,No
0,0,0,0,0,4,0,0,0,0,0,0,0,1339,0,No
0,0,0,0,0,4,0,0,0,0,0,0,0,1574,0,No
0,0,0,0,1,4,0,0,0,0,0,0,0,1574,0,No
2,15,18,0,1,1,0,0,0,0,0,0,0,545,0,No
1,3,8,0,2,5,0,0,0,0,0,0,0,1574,0,No
0,0,0,0,0,4,0,0,0,0,0,0,0,1574,0,No
1,2,3,0,2,3,0,0,0,0,0,0,0,875,0,No
0,0,0,0,0,5,0,0,0,0,0,0,0,1574,0,No
3,14,24,0,2,8,0,0,0,0,0,0,0,1245,0,Yes
1,3,24,0,2,7,0,0,0,0,0,0,0,1238,0,No
0,0,0,0,0,4,0,0,0,0,0,0,0,1739,0,No
12,3,61,0,0,8,0,0,0,0,0,0,0,1295,0,No
0,0,0,0,0,4,0,0,0,0,0,0,0,1739,0,No
0,0,0,0,0,5,0,0,0,0,0,0,0,1739,0,No
1,1,1,0,1,6,0,0,0,0,0,0,0,1238,0,No
18,4,18,0,0,4,0,0,0,0,0,0,0,791,0,No
4,3,4,0,0,4,0,0,0,0,0,0,0,822,0,No
2,2,2,0,0,5,0,0,0,0,0,0,0,1739,0,No
17,1,44,0,1,5,0,0,0,0,0,0,0,1693,0,No
1,0,1,0,1,4,0,0,0,0,0,0,0,1778,0,No
3,3,3,0,0,4,0,0,0,0,0,0,0,1130,0,No
4,2,4,0,2,2,0,0,0,0,0,0,0,878,0,No
0,0,0,0,0,6,0,0,0,0,0,0,0,1739,0,No
4,5,10,0,0,5,0,0,0,0,0,0,0,856,0,No
2,7,11,0,4,4,0,0,0,0,0,0,0,834,0,No
0,0,0,0,0,3,0,0,0,0,0,0,0,1739,0,No
1,0,1,0,1,3,0,0,0,0,0,0,0,1739,0,No
1,0,1,0,1,3,0,0,0,0,0,0,0,1739,0,No
0,0,0,0,0,3,0,0,0,0,0,0,0,1739,0,No
4,1,5,0,1,4,0,0,0,0,0,0,0,1339,0,No
0,0,0,0,0,4,0,0,0,0,0,0,0,1339,0,No
2,1,2,0,0,5,0,0,0,0,0,0,0,1133,0,No
0,1,0,0,0,4,0,0,0,0,0,0,0,1339,0,No
2,2,11,0,1,3,0,0,0,0,0,0,0,1108,0,No
10,0,10,0,0,1,0,0,0,0,0,0,0,504,0,No
1,0,4,0,0,0,0,0,0,0,0,0,0,0,0,No
2,1,4,0,1,5,0,0,0,0,0,0,0,1778,0,No
6,1,6,0,0,5,0,0,0,0,0,0,0,1778,0,No
7,4,7,0,0,7,0,0,0,0,0,0,0,1739,0,No
3,4,4,0,0,4,0,0,0,0,0,0,0,1557,0,No
0,0,0,0,0,7,0,0,0,0,0,0,0,1778,0,No
1,0,1,0,0,4,0,0,0,0,0,0,0,1778,0,No
0,0,0,0,1,2,0,0,0,0,0,0,0,499,0,No
7,11,10,0,0,2,0,0,0,0,0,0,0,604,0,No
11,6,12,0,2,6,0,0,0,0,0,0,0,1228,0,No
2,2,2,0,0,4,0,0,0,0,0,0,0,1739,0,No
3,11,5,0,0,4,0,0,0,0,0,0,0,1703,0,No
5,11,36,0,0,6,0,0,0,0,0,0,0,1718,0,No
2,2,2,0,0,5,0,0,0,0,0,0,0,1739,0,No
3,3,3,0,1,5,0,0,0,0,0,0,0,1235,0,No
4,18,38,0,3,5,0,0,0,0,0,0,0,1294,0,No
13,24,57,0,4,6,0,0,0,0,0,0,0,1716,0,No
12,14,20,0,3,5,0,0,0,0,0,0,0,1730,0,No
1,2,1,0,0,0,0,0,0,0,0,0,0,0,0,No
5,10,29,0,0,1,0,0,0,0,0,0,0,268,0,No
3,3,3,0,0,1,0,0,0,0,0,0,0,181,0,No
7,0,9,0,0,4,0,0,0,0,0,0,0,1745,0,No
2,2,4,0,0,4,0,0,0,0,0,0,0,927,0,No
1,8,10,0,2,4,0,0,0,0,0,0,0,1554,0,No
1,1,4,0,0,1,0,0,0,0,0,0,0,472,0,No
8,7,8,0,1,4,0,0,0,0,0,0,0,790,0,No
13,10,15,0,1,5,0,0,0,0,0,0,0,789,0,No
2,4,2,0,0,5,0,0,0,0,0,0,0,1778,0,No
5,4,5,0,1,3,0,0,0,0,0,0,0,784,0,No
7,10,19,0,2,4,0,0,0,0,0,0,0,785,0,No
14,11,15,0,2,3,0,0,0,0,0,0,0,784,0,No
18,14,32,0,5,4,0,0,0,0,0,0,0,783,0,No
5,6,5,0,0,4,0,0,0,0,0,0,0,786,0,No
6,4,6,0,1,3,0,0,0,0,0,0,0,784,0,No
16,19,21,0,2,5,0,0,0,0,0,0,0,779,0,No
7,7,10,0,1,4,0,0,0,0,0,0,0,784,0,No
18,17,32,0,5,6,0,0,0,0,0,0,0,780,0,No
6,4,6,0,1,7,0,0,0,0,0,0,0,1778,0,No
6,5,16,0,1,3,0,0,0,0,0,0,0,777,0,No
1,1,1,0,1,6,0,0,0,0,0,0,0,1739,0,No
10,3,10,0,0,2,0,0,0,0,0,0,0,266,0,No
15,3,20,0,0,6,0,0,0,0,0,0,0,1231,0,No
2,12,2,0,0,2,0,0,0,0,0,0,0,436,0,No
7,28,29,0,3,5,0,0,0,0,0,0,0,815,0,No
11,12,16,7,1,3,7,7,7,7,1,1,3,266,0,No
11,12,16,7,0,2,7,7,7,7,1,1,3,266,0,No
3,0,3,0,0,3,0,0,0,0,0,0,0,1778,0,No
1,0,16,0,0,1,0,0,0,0,0,0,0,260,0,No
13,1,16,0,2,1,0,0,0,0,0,0,0,749,0,No
1,0,2,0,0,4,0,0,0,0,0,0,0,1778,0,No
0,0,0,0,0,5,0,0,0,0,0,0,0,1739,0,No
2,0,4,0,1,2,0,0,0,0,0,0,0,260,0,No
8,0,10,0,0,1,0,0,0,0,0,0,0,227,0,No
1,0,9,0,1,2,0,0,0,0,0,0,0,260,0,No
1,1,7,0,1,1,0,0,0,0,0,0,0,141,0,No
1,0,5,0,1,1,0,0,0,0,0,0,0,722,0,No
9,0,10,0,0,2,0,0,0,0,0,0,0,227,0,No
2,0,4,0,0,4,0,0,0,0,0,0,0,1778,0,No
2,0,2,0,0,5,0,0,0,0,0,0,0,1739,0,No
14,0,18,0,1,5,0,0,0,0,0,0,0,1162,0,No
9,3,9,0,2,5,0,0,0,0,0,0,0,856,0,No
0,0,0,0,1,6,0,0,0,0,0,0,0,1739,0,No
0,1,0,0,1,5,0,0,0,0,0,0,0,1339,0,No
3,0,3,0,1,6,0,0,0,0,0,0,0,1739,0,No
8,1,8,11,2,4,4,4,-3,0,1,1,1,1228,0,No
0,0,0,0,0,3,0,0,0,0,0,0,0,1739,0,No
5,9,5,0,0,4,0,0,0,0,0,0,0,856,0,No
12,11,12,0,1,4,0,0,0,0,0,0,0,856,0,No
4,7,4,0,0,3,0,0,0,0,0,0,0,856,0,No
19,9,19,0,1,9,0,0,0,0,0,0,0,1246,0,No
18,13,25,0,6,8,0,0,0,0,0,0,0,1263,0,No
1,1,1,0,0,3,0,0,0,0,0,0,0,1339,0,No
1,0,1,0,0,3,0,0,0,0,0,0,0,1339,0,No
4,0,4,0,0,3,0,0,0,0,0,0,0,1339,0,No
1,1,1,0,1,4,0,0,0,0,0,0,0,1339,0,No
1,2,2,0,1,4,0,0,0,0,0,0,0,1252,0,No
1,3,1,0,0,3,0,0,0,0,0,0,0,1252,0,No
1,5,2,0,0,5,0,0,0,0,0,0,0,1252,0,No
1,3,2,0,0,3,0,0,0,0,0,0,0,1252,0,No
1,5,3,0,0,5,0,0,0,0,0,0,0,1252,0,No
3,0,3,0,1,1,0,0,0,0,0,0,0,261,0,No
1,0,2,0,0,1,0,0,0,0,0,0,0,261,0,No
18,9,20,0,2,1,0,0,0,0,0,0,0,592,0,No
2,0,4,2,2,2,2,2,2,2,2,7,8,651,0,No
3,4,3,0,0,4,0,0,0,0,0,0,0,1824,0,No
7,1,14,0,0,1,0,0,0,0,0,0,0,272,0,No
11,1,13,0,0,1,0,0,0,0,0,0,0,339,0,No
0,0,0,0,0,5,0,0,0,0,0,0,0,1385,0,No
0,1,0,0,0,4,0,0,0,0,0,0,0,1385,0,No
0,0,0,0,0,4,0,0,0,0,0,0,0,1385,0,No
9,1,14,0,0,5,0,0,0,0,0,0,0,1740,0,No
3,0,5,0,0,5,0,0,0,0,0,0,0,1824,0,No
5,1,6,0,0,4,0,0,0,0,0,0,0,1740,0,No
3,0,4,0,0,5,0,0,0,0,0,0,0,1824,0,No
2,1,2,0,1,4,0,0,0,0,0,0,0,1824,0,No
5,2,5,0,0,2,0,0,0,0,0,0,0,491,0,No
46,0,65,0,1,4,0,0,0,0,0,0,0,1760,0,No
9,1,9,0,0,2,0,0,0,0,0,0,0,852,0,No
13,0,20,0,0,5,0,0,0,0,0,0,0,1740,0,No
0,1,0,0,0,0,0,0,0,0,0,0,0,0,0,No
0,0,0,0,0,0,0,0,0,0,0,0,0,0,0,No
2,1,2,0,0,5,0,0,0,0,0,0,0,1385,0,No
1,0,1,0,0,4,0,0,0,0,0,0,0,1179,0,No
6,2,6,0,0,5,0,0,0,0,0,0,0,1179,0,No
11,1,13,0,0,3,0,0,0,0,0,0,0,1154,0,No
6,2,6,0,0,5,0,0,0,0,0,0,0,1179,0,No
0,1,0,0,0,0,0,0,0,0,0,0,0,0,0,No
3,1,3,0,0,0,0,0,0,0,0,0,0,0,0,No
5,2,5,0,0,1,0,0,0,0,0,0,0,500,0,No
11,1,11,0,0,0,0,0,0,0,0,0,0,0,0,No
0,1,0,0,0,1,0,0,0,0,0,0,0,486,0,No
7,0,7,0,0,1,0,0,0,0,0,0,0,504,0,No
2,0,2,0,0,3,0,0,0,0,0,0,0,1785,0,No
2,0,4,0,0,0,0,0,0,0,0,0,0,0,0,No
11,0,11,0,1,2,0,0,0,0,0,0,0,504,0,No
9,0,9,0,1,2,0,0,0,0,0,0,0,504,0,No
2,0,2,0,1,2,0,0,0,0,0,0,0,504,0,No
7,4,7,0,1,3,0,0,0,0,0,0,0,851,0,No
13,7,13,0,1,3,0,0,0,0,0,0,0,851,0,No
2,1,2,0,0,4,0,0,0,0,0,0,0,1824,0,No
5,1,5,0,0,4,0,0,0,0,0,0,0,846,0,No
7,3,7,0,3,3,0,0,0,0,0,0,0,847,0,No
13,5,13,0,2,3,0,0,0,0,0,0,0,850,0,Yes
10,8,10,0,0,3,0,0,0,0,0,0,0,850,0,No
18,8,18,0,3,4,0,0,0,0,0,0,0,852,0,No
5,3,5,0,0,3,0,0,0,0,0,0,0,846,0,No
6,1,6,0,0,4,0,0,0,0,0,0,0,846,0,No
16,11,16,0,3,4,0,0,0,0,0,0,0,847,0,Yes
7,2,7,0,1,7,0,0,0,0,0,0,0,1824,0,No
18,10,18,0,3,6,0,0,0,0,0,0,0,852,0,No
4,2,4,0,1,4,0,0,0,0,0,0,0,851,0,No
6,0,8,0,0,7,0,0,0,0,0,0,0,1791,0,No
10,1,14,0,0,4,0,0,0,0,0,0,0,1662,0,No
8,2,8,0,0,4,0,0,0,0,0,0,0,1824,0,No
2,1,2,0,0,4,0,0,0,0,0,0,0,1824,0,No
3,0,7,0,0,5,0,0,0,0,0,0,0,1824,0,No
15,2,15,0,0,5,0,0,0,0,0,0,0,1385,0,No
9,1,11,0,0,2,0,0,0,0,0,0,0,648,0,No
9,1,13,0,0,6,0,0,0,0,0,0,0,1662,0,No
3,2,3,0,0,4,0,0,0,0,0,0,0,1824,0,No
5,1,5,0,0,5,0,0,0,0,0,0,0,1824,0,No
0,0,0,0,0,1,0,0,0,0,0,0,0,486,0,No
11,2,11,0,0,4,0,0,0,0,0,0,0,1762,0,No
19,3,21,0,0,7,0,0,0,0,0,0,0,1764,0,No
2,0,3,0,1,6,0,0,0,0,0,0,0,1200,0,No
10,1,10,0,0,1,0,0,0,0,0,0,0,524,0,No
2,0,2,0,0,4,0,0,0,0,0,0,0,1781,0,No
7,2,8,0,2,2,0,0,0,0,0,0,0,545,0,No
4,2,4,0,0,4,0,0,0,0,0,0,0,1824,0,No
16,3,16,0,0,6,0,0,0,0,0,0,0,1769,0,No
4,0,4,0,0,5,0,0,0,0,0,0,0,1824,0,No
26,3,26,0,0,7,0,0,0,0,0,0,0,1281,0,No
13,1,13,0,0,6,0,0,0,0,0,0,0,1274,0,No
2,2,2,0,0,4,0,0,0,0,0,0,0,1824,0,No
18,3,18,0,0,4,0,0,0,0,0,0,0,1662,0,No
4,0,4,0,0,2,0,0,0,0,0,0,0,486,0,No
2,0,2,0,0,4,0,0,0,0,0,0,0,1385,0,No
18,2,26,0,0,5,0,0,0,0,0,0,0,1179,0,No
40,3,40,0,1,5,0,0,0,0,0,0,0,1760,0,No
35,0,39,0,1,5,0,0,0,0,0,0,0,1753,0,Yes
12,0,16,0,0,5,0,0,0,0,0,0,0,1824,0,No
24,2,25,0,0,6,0,0,0,0,0,0,0,1824,0,No
4,1,4,0,0,4,0,0,0,0,0,0,0,1824,0,No
2,2,2,0,0,4,0,0,0,0,0,0,0,1824,0,No
6,0,6,0,0,5,0,0,0,0,0,0,0,1385,0,No
2,0,2,0,0,4,0,0,0,0,0,0,0,1662,0,No
2,0,2,0,0,5,0,0,0,0,0,0,0,1824,0,No
17,2,17,0,0,4,0,0,0,0,0,0,0,1287,0,No
0,1,0,0,0,0,0,0,0,0,0,0,0,0,0,No
18,1,22,0,0,5,0,0,0,0,0,0,0,1785,0,No
0,0,0,0,0,5,0,0,0,0,0,0,0,1785,0,No
7,4,10,0,2,3,0,0,0,0,0,0,0,1138,0,No
2,0,2,0,0,6,0,0,0,0,0,0,0,1785,0,No
1,0,1,0,0,4,0,0,0,0,0,0,0,1785,0,No
0,0,0,0,0,5,0,0,0,0,0,0,0,1785,0,No
2,0,2,0,2,3,0,0,0,0,0,0,0,1111,0,No
2,0,2,0,0,4,0,0,0,0,0,0,0,1785,0,No
1,0,1,0,0,5,0,0,0,0,0,0,0,1785,0,No
0,0,0,0,1,3,0,0,0,0,0,0,0,805,0,No
46,1,50,0,0,7,0,0,0,0,0,0,0,1354,0,No
0,0,0,0,0,4,0,0,0,0,0,0,0,1785,0,No
0,0,0,0,0,5,0,0,0,0,0,0,0,1385,0,No
0,0,0,0,0,4,0,0,0,0,0,0,0,1785,0,No
0,0,0,0,0,5,0,0,0,0,0,0,0,1785,0,No
0,0,0,0,0,5,0,0,0,0,0,0,0,1785,0,No
0,0,0,0,1,6,0,0,0,0,0,0,0,1785,0,No
1,0,2,0,0,5,0,0,0,0,0,0,0,1785,0,No
8,2,9,0,0,8,0,0,0,0,0,0,0,1785,0,No
0,0,0,0,0,4,0,0,0,0,0,0,0,1785,0,No
0,0,0,0,0,4,0,0,0,0,0,0,0,1385,0,No
2,0,2,0,0,0,0,0,0,0,0,0,0,0,0,No
0,1,0,0,0,4,0,0,0,0,0,0,0,1785,0,No
10,13,70,0,1,7,0,0,0,0,0,0,0,1267,0,Yes
0,0,0,0,0,1,0,0,0,0,0,0,0,486,0,No
0,0,0,0,0,1,0,0,0,0,0,0,0,486,0,No
0,0,0,0,0,1,0,0,0,0,0,0,0,486,0,No
0,0,0,0,0,1,0,0,0,0,0,0,0,486,0,No
0,0,0,0,0,1,0,0,0,0,0,0,0,486,0,No
0,0,0,0,0,2,0,0,0,0,0,0,0,486,0,No
0,0,0,0,0,1,0,0,0,0,0,0,0,486,0,No
0,0,0,0,0,1,0,0,0,0,0,0,0,486,0,No
0,0,0,0,1,6,0,0,0,0,0,0,0,1785,0,No
0,0,0,0,0,1,0,0,0,0,0,0,0,486,0,No
0,0,0,0,0,1,0,0,0,0,0,0,0,486,0,No
0,1,0,0,0,1,0,0,0,0,0,0,0,486,0,No
14,20,29,0,2,6,0,0,0,0,0,0,0,1785,0,No
22,3,28,0,3,8,0,0,0,0,0,0,0,1785,0,No
1,0,1,0,0,1,0,0,0,0,0,0,0,574,0,No
5,1,14,0,0,2,0,0,0,0,0,0,0,192,0,No
3,0,3,0,0,2,0,0,0,0,0,0,0,986,0,No
0,0,0,0,0,3,0,0,0,0,0,0,0,717,0,No
0,0,0,0,0,2,0,0,0,0,0,0,0,717,0,No
0,0,0,0,0,4,0,0,0,0,0,0,0,1785,0,No
6,0,9,0,0,4,0,0,0,0,0,0,0,1166,0,No
2,0,2,0,0,5,0,0,0,0,0,0,0,1385,0,No
0,0,0,0,0,3,0,0,0,0,0,0,0,1785,0,No
1,6,3,0,1,4,0,0,0,0,0,0,0,1454,0,No
2,0,3,0,0,3,0,0,0,0,0,0,0,1824,0,No
2,0,7,0,1,5,0,0,0,0,0,0,0,1504,0,No
3,0,16,0,0,6,0,0,0,0,0,0,0,1613,0,No
5,1,5,0,0,1,0,0,0,0,0,0,0,551,0,No
3,2,3,0,0,4,0,0,0,0,0,0,0,1824,0,No
12,3,12,0,0,4,0,0,0,0,0,0,0,1824,0,No
2,0,6,0,0,1,0,0,0,0,0,0,0,308,0,No
1,0,1,0,1,7,0,0,0,0,0,0,0,1824,0,No
2,0,4,0,0,1,0,0,0,0,0,0,0,823,0,No
2,8,15,0,1,1,0,0,0,0,0,0,0,185,0,No
4,13,4,0,2,6,0,0,0,0,0,0,0,1785,0,No
2,2,2,0,0,5,0,0,0,0,0,0,0,1454,0,No
0,0,0,0,0,2,0,0,0,0,0,0,0,574,0,No
8,8,9,0,1,8,0,0,0,0,0,0,0,1384,0,No
0,0,0,0,0,4,0,0,0,0,0,0,0,1785,0,No
0,1,0,0,1,5,0,0,0,0,0,0,0,1785,0,No
0,0,0,0,1,5,0,0,0,0,0,0,0,1785,0,No
4,2,4,0,0,3,0,0,0,0,0,0,0,783,0,No
3,5,13,0,0,2,0,0,0,0,0,0,0,789,0,No
2,9,5,0,7,6,0,0,0,0,0,0,0,1179,0,Yes
0,0,0,0,1,3,0,0,0,0,0,0,0,1785,0,No
0,0,0,0,0,3,0,0,0,0,0,0,0,1385,0,No
0,0,0,0,0,1,0,0,0,0,0,0,0,654,0,No
0,0,0,0,0,3,0,0,0,0,0,0,0,1785,0,No
0,1,0,0,0,5,0,0,0,0,0,0,0,1783,0,No
0,3,0,0,1,6,0,0,0,0,0,0,0,1274,0,No
0,2,0,0,1,4,0,0,0,0,0,0,0,1454,0,No
5,8,8,0,0,2,0,0,0,0,0,0,0,318,0,No
3,3,3,0,0,4,0,0,0,0,0,0,0,1166,0,No
1,3,1,0,0,5,0,0,0,0,0,0,0,1454,0,No
2,2,3,0,0,7,0,0,0,0,0,0,0,1384,0,No
2,5,3,0,1,8,0,0,0,0,0,0,0,1384,0,No
2,5,4,0,0,6,0,0,0,0,0,0,0,1454,0,Yes
2,3,2,0,0,5,0,0,0,0,0,0,0,1454,0,Yes
2,1,2,0,0,5,0,0,0,0,0,0,0,1454,0,Yes
2,3,2,0,0,6,0,0,0,0,0,0,0,1785,0,No
6,10,12,0,0,1,0,0,0,0,0,0,0,318,0,No
0,3,0,0,1,3,0,0,0,0,0,0,0,717,0,No
0,3,0,0,0,6,0,0,0,0,0,0,0,1179,0,No
10,6,10,0,0,1,0,0,0,0,0,0,0,574,0,No
1,0,1,0,0,1,0,0,0,0,0,0,0,574,0,No
2,0,2,0,0,4,0,0,0,0,0,0,0,1785,0,No
11,14,33,0,6,7,0,0,0,0,0,0,0,1369,0,No
3,1,7,0,1,2,0,0,0,0,0,0,0,363,0,No
13,0,13,0,0,0,0,0,0,0,0,0,0,0,0,No
3,5,4,0,2,5,0,0,0,0,0,0,0,917,0,No
10,1,14,0,2,2,0,0,0,0,0,0,0,545,0,No
0,3,0,0,0,6,0,0,0,0,0,0,0,1179,0,No
2,2,5,0,0,1,0,0,0,0,0,0,0,308,0,No
1,1,2,0,0,1,0,0,0,0,0,0,0,308,0,No
2,1,2,0,1,1,0,0,0,0,0,0,0,528,0,No
1,1,5,0,0,1,0,0,0,0,0,0,0,528,0,No
3,2,3,0,2,6,0,0,0,0,0,0,0,1284,0,No
2,2,2,0,1,5,0,0,0,0,0,0,0,1581,0,No
5,3,7,0,1,5,0,0,0,0,0,0,0,1824,0,No
7,7,14,0,1,6,0,0,0,0,0,0,0,1733,0,No
2,0,2,0,0,4,0,0,0,0,0,0,0,1785,0,No
8,7,11,0,1,6,0,0,0,0,0,0,0,1733,0,No
5,2,5,0,1,6,0,0,0,0,0,0,0,1274,0,No
11,5,13,0,2,6,0,0,0,0,0,0,0,1166,0,No
8,11,12,0,0,6,0,0,0,0,0,0,0,1754,0,No
17,14,17,0,4,7,0,0,0,0,0,0,0,1754,0,No
21,12,41,0,2,8,0,0,0,0,0,0,0,1824,0,No
5,2,5,0,0,1,0,0,0,0,0,0,0,224,0,No
18,15,26,0,2,8,0,0,0,0,0,0,0,1649,0,No
18,17,19,0,3,8,0,0,0,0,0,0,0,1775,0,No
4,0,4,0,0,1,0,0,0,0,0,0,0,1166,0,No
3,1,5,0,1,2,0,0,0,0,0,0,0,805,0,No
3,1,5,0,1,4,0,0,0,0,0,0,0,1504,0,No
2,0,2,0,1,4,0,0,0,0,0,0,0,1504,0,No
3,2,6,0,0,2,0,0,0,0,0,0,0,783,0,No
1,2,10,0,1,4,0,0,0,0,0,0,0,1271,0,No
0,0,0,0,0,4,0,0,0,0,0,0,0,1785,0,No
0,1,0,0,0,4,0,0,0,0,0,0,0,1785,0,No
3,0,3,0,0,5,0,0,0,0,0,0,0,1274,0,No
1,0,2,0,1,4,0,0,0,0,0,0,0,1785,0,No
1,0,2,0,1,5,0,0,0,0,0,0,0,1274,0,No
1,1,2,0,0,4,0,0,0,0,0,0,0,1274,0,No
1,2,3,0,0,4,0,0,0,0,0,0,0,1274,0,No
1,0,1,0,0,4,0,0,0,0,0,0,0,1785,0,No
32,3,82,0,2,5,0,0,0,0,0,0,0,1193,0,No
8,1,25,0,2,8,0,0,0,0,0,0,0,1733,0,No
2,1,2,0,0,3,0,0,0,0,0,0,0,1543,0,No
3,1,3,0,1,5,0,0,0,0,0,0,0,1341,0,No
2,1,3,0,1,5,0,0,0,0,0,0,0,1733,0,No
1,0,1,0,0,4,0,0,0,0,0,0,0,1785,0,No
6,1,30,0,2,7,0,0,0,0,0,0,0,1341,0,No
20,0,30,0,5,7,0,0,0,0,0,0,0,1341,0,No
0,0,0,0,0,3,0,0,0,0,0,0,0,1785,0,No
5,1,9,0,0,1,0,0,0,0,0,0,0,343,0,No
1,0,1,0,2,1,0,0,0,0,0,0,0,815,0,No
1,0,1,0,0,5,0,0,0,0,0,0,0,1785,0,No
1,1,5,0,0,1,0,0,0,0,0,0,0,308,0,No
2,1,2,0,0,1,0,0,0,0,0,0,0,308,0,No
1,0,1,0,0,5,0,0,0,0,0,0,0,1785,0,No
1,0,1,0,0,5,0,0,0,0,0,0,0,1385,0,No
6,4,7,0,0,4,0,0,0,0,0,0,0,1270,0,No
1,1,1,0,0,4,0,0,0,0,0,0,0,1385,0,No
2,0,2,0,0,3,0,0,0,0,0,0,0,776,0,No
2,0,4,0,0,2,0,0,0,0,0,0,0,307,0,No
4,1,4,0,0,5,0,0,0,0,0,0,0,1385,0,No
5,1,14,0,1,2,0,0,0,0,0,0,0,810,0,No
4,1,4,0,0,1,0,0,0,0,0,0,0,133,0,No
6,1,6,0,1,3,0,0,0,0,0,0,0,810,0,No
7,0,8,0,0,4,0,0,0,0,0,0,0,1824,0,No
3,2,13,0,0,1,0,0,0,0,0,0,0,524,0,No
1,5,10,0,1,5,0,0,0,0,0,0,0,1187,0,No
1,2,1,0,1,6,0,0,0,0,0,0,0,1440,0,No
2,1,2,0,1,5,0,0,0,0,0,0,0,1385,0,No
1,2,2,0,0,2,0,0,0,0,0,0,0,648,0,No
11,3,16,0,0,6,0,0,0,0,0,0,0,1778,0,No
4,1,4,0,2,3,0,0,0,0,0,0,0,1824,0,No
2,0,2,0,0,3,0,0,0,0,0,0,0,1785,0,No
20,7,74,46,3,5,29,29,12,12,1,2,2,1813,0,No
19,0,37,0,1,4,0,0,0,0,0,0,0,1778,0,No
5,1,5,0,2,6,0,0,0,0,0,0,0,1798,0,No
8,0,13,0,0,5,0,0,0,0,0,0,0,1179,0,No
17,2,24,0,0,5,0,0,0,0,0,0,0,1769,0,No
2,0,2,0,2,5,0,0,0,0,0,0,0,1811,0,No
6,0,8,0,0,1,0,0,0,0,0,0,0,319,0,No
16,3,16,0,0,7,0,0,0,0,0,0,0,1385,0,No
8,0,11,0,0,5,0,0,0,0,0,0,0,1459,0,No
5,1,7,0,0,5,0,0,0,0,0,0,0,1778,0,Yes
25,4,33,0,0,5,0,0,0,0,0,0,0,1789,0,No
10,0,10,0,0,1,0,0,0,0,0,0,0,524,0,No
4,0,4,0,0,4,0,0,0,0,0,0,0,1813,0,No
41,7,47,0,0,6,0,0,0,0,0,0,0,1769,0,No
31,3,39,0,2,6,0,0,0,0,0,0,0,1281,0,No
16,1,17,0,0,5,0,0,0,0,0,0,0,1274,0,No
0,1,0,0,0,4,0,0,0,0,0,0,0,1778,0,No
6,4,6,0,2,5,0,0,0,0,0,0,0,1354,0,No
18,5,19,0,0,5,0,0,0,0,0,0,0,1662,0,No
0,1,0,0,0,5,0,0,0,0,0,0,0,1778,0,No
4,1,4,0,0,4,0,0,0,0,0,0,0,1785,0,No
6,1,8,0,0,4,0,0,0,0,0,0,0,1179,0,No
5,2,7,0,0,4,0,0,0,0,0,0,0,1179,0,No
8,1,8,0,0,5,0,0,0,0,0,0,0,1385,0,No
3,0,3,0,0,4,0,0,0,0,0,0,0,1778,0,No
0,1,0,0,0,5,0,0,0,0,0,0,0,1778,0,No
6,4,8,0,1,7,0,0,0,0,0,0,0,1385,0,No
6,2,6,0,0,4,0,0,0,0,0,0,0,1813,0,No
5,0,10,0,0,4,0,0,0,0,0,0,0,1662,0,No
4,0,4,0,0,3,0,0,0,0,0,0,0,1662,0,No
10,4,14,0,0,5,0,0,0,0,0,0,0,1778,0,No
5,3,7,0,0,5,0,0,0,0,0,0,0,1620,0,No
3,2,4,0,0,5,0,0,0,0,0,0,0,1824,0,No
0,1,0,0,1,4,0,0,0,0,0,0,0,1778,0,No
14,4,18,0,0,1,0,0,0,0,0,0,0,314,0,No
11,4,16,0,0,5,0,0,0,0,0,0,0,1778,0,Yes
5,2,5,0,1,4,0,0,0,0,0,0,0,1778,0,No
5,3,7,0,0,5,0,0,0,0,0,0,0,1620,0,No
3,2,4,0,0,5,0,0,0,0,0,0,0,1824,0,No
5,3,7,0,0,5,0,0,0,0,0,0,0,1778,0,No
4,2,4,0,0,4,0,0,0,0,0,0,0,1778,0,No
0,1,0,0,0,4,0,0,0,0,0,0,0,1778,0,No
0,1,0,0,0,4,0,0,0,0,0,0,0,1778,0,No
5,3,7,0,1,7,0,0,0,0,0,0,0,1778,0,No
4,2,4,0,0,4,0,0,0,0,0,0,0,1778,0,No
0,1,0,0,0,4,0,0,0,0,0,0,0,1778,0,No
18,6,43,0,0,6,0,0,0,0,0,0,0,1748,0,No
0,0,0,0,0,3,0,0,0,0,0,0,0,1785,0,No
11,4,16,0,0,5,0,0,0,0,0,0,0,1778,0,Yes
5,1,5,0,1,5,0,0,0,0,0,0,0,1824,0,No
5,3,7,0,0,5,0,0,0,0,0,0,0,1620,0,No
3,2,4,0,0,5,0,0,0,0,0,0,0,1824,0,No
5,3,7,0,0,5,0,0,0,0,0,0,0,1778,0,No
4,1,4,0,0,5,0,0,0,0,0,0,0,1824,0,No
0,1,0,0,0,4,0,0,0,0,0,0,0,1778,0,No
3,2,5,0,0,5,0,0,0,0,0,0,0,1824,0,No
0,1,0,0,0,4,0,0,0,0,0,0,0,1778,0,No
5,3,7,0,0,6,0,0,0,0,0,0,0,1778,0,No
4,1,4,0,0,5,0,0,0,0,0,0,0,1824,0,No
0,1,0,0,0,4,0,0,0,0,0,0,0,1778,0,No
51,18,95,0,1,5,0,0,0,0,0,0,0,1778,0,No
10,4,14,0,0,5,0,0,0,0,0,0,0,1778,0,Yes
5,3,7,0,0,5,0,0,0,0,0,0,0,1620,0,No
3,2,4,0,0,5,0,0,0,0,0,0,0,1824,0,No
4,3,5,0,0,5,0,0,0,0,0,0,0,1778,0,No
0,1,0,0,1,4,0,0,0,0,0,0,0,1778,0,No
3,2,5,0,0,5,0,0,0,0,0,0,0,1824,0,No
0,1,0,0,1,4,0,0,0,0,0,0,0,1778,0,No
4,3,5,0,0,6,0,0,0,0,0,0,0,1778,0,No
0,1,0,0,1,4,0,0,0,0,0,0,0,1778,0,No
3,1,3,0,0,4,0,0,0,0,0,0,0,1824,0,No
4,2,4,0,0,4,0,0,0,0,0,0,0,1824,0,No
5,2,5,0,0,4,0,0,0,0,0,0,0,1824,0,No
5,2,5,0,0,4,0,0,0,0,0,0,0,1824,0,No
4,2,4,0,0,4,0,0,0,0,0,0,0,1824,0,No
2,1,2,0,0,5,0,0,0,0,0,0,0,1785,0,No
4,1,4,0,0,3,0,0,0,0,0,0,0,1785,0,No
5,2,5,0,0,4,0,0,0,0,0,0,0,1824,0,No
5,4,5,0,0,4,0,0,0,0,0,0,0,1824,0,No
6,3,6,0,0,4,0,0,0,0,0,0,0,1824,0,No
5,3,5,0,0,4,0,0,0,0,0,0,0,1824,0,No
5,4,5,0,0,4,0,0,0,0,0,0,0,1824,0,No
0,0,0,0,0,5,0,0,0,0,0,0,0,1785,0,No
4,2,4,0,0,4,0,0,0,0,0,0,0,1385,0,No
9,6,9,0,1,5,0,0,0,0,0,0,0,1785,0,No
7,3,7,0,1,4,0,0,0,0,0,0,0,1824,0,No
7,3,7,0,0,4,0,0,0,0,0,0,0,1824,0,No
8,6,8,0,0,4,0,0,0,0,0,0,0,1824,0,No
22,9,22,0,1,6,0,0,0,0,0,0,0,1824,0,No
5,4,5,0,0,4,0,0,0,0,0,0,0,1824,0,No
4,2,4,0,0,4,0,0,0,0,0,0,0,1824,0,No
4,4,4,0,0,6,0,0,0,0,0,0,0,1824,0,No
5,4,5,0,1,6,0,0,0,0,0,0,0,1824,0,No
10,4,10,0,1,4,0,0,0,0,0,0,0,1824,0,No
8,3,8,0,0,4,0,0,0,0,0,0,0,1824,0,No
15,6,15,0,1,6,0,0,0,0,0,0,0,1824,0,No
5,2,5,0,0,4,0,0,0,0,0,0,0,1824,0,No
5,4,5,0,0,4,0,0,0,0,0,0,0,1824,0,No
3,2,5,0,0,4,0,0,0,0,0,0,0,1813,0,No
4,3,6,0,0,1,0,0,0,0,0,0,0,571,0,No
5,2,7,0,0,4,0,0,0,0,0,0,0,1813,0,Yes
5,8,11,0,1,4,0,0,0,0,0,0,0,1813,0,No
4,6,9,0,0,5,0,0,0,0,0,0,0,1813,0,No
5,2,7,0,0,4,0,0,0,0,0,0,0,1813,0,No
5,10,11,0,0,4,0,0,0,0,0,0,0,1813,0,No
6,5,9,0,0,4,0,0,0,0,0,0,0,1813,0,No
5,4,8,0,0,4,0,0,0,0,0,0,0,1187,0,No
5,5,7,0,0,5,0,0,0,0,0,0,0,1748,0,No
4,3,4,0,0,4,0,0,0,0,0,0,0,1281,0,No
1,0,6,0,2,6,0,0,0,0,0,0,0,1824,0,No
9,9,27,0,0,5,0,0,0,0,0,0,0,1354,0,No
7,4,10,0,2,4,0,0,0,0,0,0,0,1179,0,No
8,4,12,0,0,4,0,0,0,0,0,0,0,1179,0,No
9,19,33,0,0,7,0,0,0,0,0,0,0,1769,0,No
30,36,89,0,2,7,0,0,0,0,0,0,0,1813,0,No
5,12,13,0,0,4,0,0,0,0,0,0,0,1813,0,No
4,5,6,0,0,1,0,0,0,0,0,0,0,227,0,No
11,8,22,0,2,5,0,0,0,0,0,0,0,1813,0,No
9,7,14,0,0,4,0,0,0,0,0,0,0,1813,0,No
18,18,25,2,3,10,1,1,0,0,2,7,8,1568,0,No
5,2,7,0,0,4,0,0,0,0,0,0,0,1813,0,No
5,10,11,0,0,4,0,0,0,0,0,0,0,1813,0,No
4,0,4,0,0,1,0,0,0,0,0,0,0,272,0,No
7,0,11,0,0,1,0,0,0,0,0,0,0,272,0,No
3,0,3,0,0,1,0,0,0,0,0,0,0,272,0,No
7,0,8,0,1,1,0,0,0,0,0,0,0,503,0,No
3,0,3,0,0,1,0,0,0,0,0,0,0,272,0,No
0,0,0,0,0,0,0,0,0,0,0,0,0,0,0,No
2,2,2,0,0,4,0,0,0,0,0,0,0,1795,0,No
1,2,2,0,0,5,0,0,0,0,0,0,0,1824,0,No
1,4,6,0,0,6,0,0,0,0,0,0,0,1824,0,No
1,3,2,0,1,5,0,0,0,0,0,0,0,1795,0,No
0,1,0,0,0,5,0,0,0,0,0,0,0,1824,0,No
0,0,0,0,0,3,0,0,0,0,0,0,0,1824,0,No
1,1,1,0,0,3,0,0,0,0,0,0,0,1795,0,No
0,0,0,0,0,4,0,0,0,0,0,0,0,1620,0,No
2,1,2,0,3,4,0,0,0,0,0,0,0,1824,0,No
0,0,0,0,0,4,0,0,0,0,0,0,0,1620,0,No
0,0,0,0,0,4,0,0,0,0,0,0,0,1620,0,No
0,0,0,0,0,4,0,0,0,0,0,0,0,1620,0,No
1,1,2,0,0,4,0,0,0,0,0,0,0,1620,0,No
0,0,0,0,0,4,0,0,0,0,0,0,0,1620,0,No
4,1,7,0,2,5,0,0,0,0,0,0,0,1620,0,No
0,0,0,0,0,4,0,0,0,0,0,0,0,1385,0,No
1,3,5,0,2,5,0,0,0,0,0,0,0,1281,0,No
0,0,0,0,0,4,0,0,0,0,0,0,0,1620,0,No
0,0,0,0,0,4,0,0,0,0,0,0,0,1385,0,No
0,0,0,0,0,4,0,0,0,0,0,0,0,1385,0,No
0,0,0,0,0,4,0,0,0,0,0,0,0,1385,0,No
0,0,0,0,0,4,0,0,0,0,0,0,0,1620,0,No
0,0,0,0,1,4,0,0,0,0,0,0,0,1620,0,No
2,15,18,0,1,1,0,0,0,0,0,0,0,591,0,No
1,3,8,0,2,5,0,0,0,0,0,0,0,1620,0,No
0,0,0,0,0,4,0,0,0,0,0,0,0,1620,0,No
1,2,3,0,2,3,0,0,0,0,0,0,0,921,0,No
0,0,0,0,0,5,0,0,0,0,0,0,0,1620,0,No
3,14,24,0,2,8,0,0,0,0,0,0,0,1291,0,Yes
1,3,24,0,2,7,0,0,0,0,0,0,0,1284,0,No
0,0,0,0,0,4,0,0,0,0,0,0,0,1785,0,No
12,3,61,0,0,8,0,0,0,0,0,0,0,1341,0,No
0,0,0,0,0,4,0,0,0,0,0,0,0,1785,0,No
0,0,0,0,0,5,0,0,0,0,0,0,0,1785,0,No
1,1,1,0,1,6,0,0,0,0,0,0,0,1284,0,No
18,4,18,0,0,4,0,0,0,0,0,0,0,837,0,No
4,3,4,0,0,4,0,0,0,0,0,0,0,868,0,No
2,2,2,0,0,5,0,0,0,0,0,0,0,1785,0,No
17,1,44,0,1,5,0,0,0,0,0,0,0,1739,0,No
1,0,1,0,1,4,0,0,0,0,0,0,0,1824,0,No
3,3,3,0,0,4,0,0,0,0,0,0,0,1176,0,No
4,2,4,0,2,2,0,0,0,0,0,0,0,924,0,No
0,0,0,0,0,6,0,0,0,0,0,0,0,1785,0,No
4,5,10,0,0,5,0,0,0,0,0,0,0,902,0,No
2,7,11,0,4,4,0,0,0,0,0,0,0,880,0,No
0,0,0,0,0,3,0,0,0,0,0,0,0,1785,0,No
1,0,1,0,1,3,0,0,0,0,0,0,0,1785,0,No
1,0,1,0,1,3,0,0,0,0,0,0,0,1785,0,No
0,0,0,0,0,3,0,0,0,0,0,0,0,1785,0,No
4,1,5,0,1,4,0,0,0,0,0,0,0,1385,0,No
0,0,0,0,0,4,0,0,0,0,0,0,0,1385,0,No
2,1,2,0,0,5,0,0,0,0,0,0,0,1179,0,No
0,1,0,0,0,4,0,0,0,0,0,0,0,1385,0,No
2,2,11,0,1,3,0,0,0,0,0,0,0,1154,0,No
10,0,10,0,0,1,0,0,0,0,0,0,0,550,0,No
1,0,4,0,0,0,0,0,0,0,0,0,0,0,0,No
2,1,4,0,1,5,0,0,0,0,0,0,0,1824,0,No
6,1,6,0,0,5,0,0,0,0,0,0,0,1824,0,No
7,4,7,0,0,7,0,0,0,0,0,0,0,1785,0,No
3,4,4,0,0,4,0,0,0,0,0,0,0,1603,0,No
0,0,0,0,0,7,0,0,0,0,0,0,0,1824,0,No
1,0,1,0,0,4,0,0,0,0,0,0,0,1824,0,No
0,0,0,0,1,2,0,0,0,0,0,0,0,545,0,No
7,11,10,0,0,2,0,0,0,0,0,0,0,650,0,No
11,6,12,0,2,6,0,0,0,0,0,0,0,1274,0,No
2,2,2,0,0,4,0,0,0,0,0,0,0,1785,0,No
3,11,5,0,0,4,0,0,0,0,0,0,0,1749,0,No
5,11,36,0,0,6,0,0,0,0,0,0,0,1764,0,No
2,2,2,0,0,5,0,0,0,0,0,0,0,1785,0,No
3,3,3,0,1,5,0,0,0,0,0,0,0,1281,0,No
4,18,38,0,3,5,0,0,0,0,0,0,0,1340,0,No
13,24,57,0,4,6,0,0,0,0,0,0,0,1762,0,No
12,14,20,0,3,5,0,0,0,0,0,0,0,1776,0,No
1,2,1,0,0,0,0,0,0,0,0,0,0,0,0,No
5,10,29,0,0,1,0,0,0,0,0,0,0,314,0,No
3,3,3,0,0,1,0,0,0,0,0,0,0,227,0,No
7,0,9,0,0,4,0,0,0,0,0,0,0,1791,0,No
2,2,4,0,0,4,0,0,0,0,0,0,0,973,0,No
1,8,10,0,2,4,0,0,0,0,0,0,0,1600,0,No
1,1,4,0,0,1,0,0,0,0,0,0,0,518,0,No
8,7,8,0,1,4,0,0,0,0,0,0,0,836,0,No
13,10,15,0,1,5,0,0,0,0,0,0,0,835,0,No
2,4,2,0,0,5,0,0,0,0,0,0,0,1824,0,No
5,4,5,0,1,3,0,0,0,0,0,0,0,830,0,No
7,10,19,0,2,4,0,0,0,0,0,0,0,831,0,No
14,11,15,0,2,3,0,0,0,0,0,0,0,830,0,Yes
18,14,32,0,5,4,0,0,0,0,0,0,0,829,0,No
5,6,5,0,0,4,0,0,0,0,0,0,0,832,0,No
6,4,6,0,1,3,0,0,0,0,0,0,0,830,0,No
16,19,21,0,2,5,0,0,0,0,0,0,0,825,0,Yes
7,7,10,0,1,4,0,0,0,0,0,0,0,830,0,No
18,17,32,0,5,6,0,0,0,0,0,0,0,826,0,No
6,4,6,0,1,7,0,0,0,0,0,0,0,1824,0,No
6,5,16,0,1,3,0,0,0,0,0,0,0,823,0,No
0,0,0,12,1,3,6,6,0,0,2,7,17,1785,0,No
9,3,9,64,0,7,34,34,4,4,2,7,17,1260,0,No
1,1,1,0,1,6,0,0,0,0,0,0,0,1785,0,No
10,3,10,0,0,2,0,0,0,0,0,0,0,312,0,No
15,3,20,8,0,6,6,6,4,4,2,7,17,1277,0,No
4,14,4,9,0,2,8,8,7,7,2,7,17,482,0,No
7,28,29,0,3,5,0,0,0,0,0,0,0,861,0,No
11,12,16,0,1,3,0,0,0,0,0,0,0,312,0,No
11,12,16,0,0,2,0,0,0,0,0,0,0,312,0,No
3,0,3,0,0,3,0,0,0,0,0,0,0,1824,0,No
1,0,16,0,0,1,0,0,0,0,0,0,0,306,0,No
13,1,16,0,2,1,0,0,0,0,0,0,0,795,0,No
1,0,2,0,0,4,0,0,0,0,0,0,0,1824,0,No
0,0,0,0,0,5,0,0,0,0,0,0,0,1785,0,No
2,0,4,0,1,2,0,0,0,0,0,0,0,306,0,No
8,0,10,0,0,1,0,0,0,0,0,0,0,273,0,No
1,0,9,0,1,2,0,0,0,0,0,0,0,306,0,No
1,1,7,0,1,1,0,0,0,0,0,0,0,187,0,No
1,0,5,0,1,1,0,0,0,0,0,0,0,768,0,No
9,0,10,0,0,2,0,0,0,0,0,0,0,273,0,No
2,0,4,0,0,4,0,0,0,0,0,0,0,1824,0,No
2,0,2,0,0,5,0,0,0,0,0,0,0,1785,0,No
14,0,18,0,1,5,0,0,0,0,0,0,0,1208,0,No
9,3,9,0,2,5,0,0,0,0,0,0,0,902,0,No
0,0,0,0,1,6,0,0,0,0,0,0,0,1785,0,No
0,1,0,0,1,5,0,0,0,0,0,0,0,1385,0,No
3,0,3,0,1,6,0,0,0,0,0,0,0,1785,0,No
8,1,8,0,2,4,0,0,0,0,0,0,0,1274,0,No
0,0,0,0,0,3,0,0,0,0,0,0,0,1785,0,No
5,9,5,0,0,4,0,0,0,0,0,0,0,902,0,No
12,11,12,0,1,4,0,0,0,0,0,0,0,902,0,No
4,7,4,0,0,3,0,0,0,0,0,0,0,902,0,No
19,9,19,0,1,9,0,0,0,0,0,0,0,1292,0,No
18,13,25,0,6,8,0,0,0,0,0,0,0,1309,0,No
1,1,1,0,0,3,0,0,0,0,0,0,0,1385,0,No
1,0,1,0,0,3,0,0,0,0,0,0,0,1385,0,No
4,0,4,0,0,3,0,0,0,0,0,0,0,1385,0,No
1,1,1,0,1,4,0,0,0,0,0,0,0,1385,0,No
1,2,2,0,1,4,0,0,0,0,0,0,0,1298,0,No
1,3,1,0,0,3,0,0,0,0,0,0,0,1298,0,No
1,5,2,0,0,5,0,0,0,0,0,0,0,1298,0,No
1,3,2,0,0,3,0,0,0,0,0,0,0,1298,0,No
1,5,3,0,0,5,0,0,0,0,0,0,0,1298,0,Yes
3,0,3,0,1,1,0,0,0,0,0,0,0,307,0,No
1,0,2,0,0,1,0,0,0,0,0,0,0,307,0,No
18,9,20,0,2,1,0,0,0,0,0,0,0,676,0,No
2,0,4,0,2,2,0,0,0,0,0,0,0,735,0,No
3,4,3,0,0,4,0,0,0,0,0,0,0,1908,0,No
7,1,14,0,0,1,0,0,0,0,0,0,0,356,0,No
11,1,13,0,0,1,0,0,0,0,0,0,0,423,0,No
0,0,0,0,0,5,0,0,0,0,0,0,0,1469,0,No
0,1,0,0,0,4,0,0,0,0,0,0,0,1469,0,No
0,0,0,0,0,4,0,0,0,0,0,0,0,1469,0,No
9,1,14,0,0,5,0,0,0,0,0,0,0,1824,0,No
3,0,5,0,0,5,0,0,0,0,0,0,0,1908,0,No
5,1,6,0,0,4,0,0,0,0,0,0,0,1824,0,No
3,0,4,0,0,5,0,0,0,0,0,0,0,1908,0,No
2,1,2,0,1,4,0,0,0,0,0,0,0,1908,0,No
5,2,5,0,0,2,0,0,0,0,0,0,0,575,0,No
46,0,65,0,1,4,0,0,0,0,0,0,0,1844,0,No
9,1,9,0,0,2,0,0,0,0,0,0,0,936,0,No
13,0,20,0,0,5,0,0,0,0,0,0,0,1824,0,No
0,1,0,0,0,0,0,0,0,0,0,0,0,0,0,No
0,0,0,0,0,0,0,0,0,0,0,0,0,0,0,No
2,1,2,0,0,5,0,0,0,0,0,0,0,1469,0,No
1,0,1,0,0,4,0,0,0,0,0,0,0,1263,0,No
6,2,6,0,0,5,0,0,0,0,0,0,0,1263,0,No
11,1,13,0,0,3,0,0,0,0,0,0,0,1238,0,No
6,2,6,0,0,5,0,0,0,0,0,0,0,1263,0,No
0,1,0,0,0,0,0,0,0,0,0,0,0,0,0,No
3,1,3,0,0,0,0,0,0,0,0,0,0,0,0,No
5,2,5,0,0,1,0,0,0,0,0,0,0,584,0,No
11,1,11,0,0,0,0,0,0,0,0,0,0,0,0,No
0,1,0,0,0,1,0,0,0,0,0,0,0,570,0,No
7,0,7,0,0,1,0,0,0,0,0,0,0,588,0,No
2,0,2,0,0,3,0,0,0,0,0,0,0,1869,0,No
2,0,4,0,0,0,0,0,0,0,0,0,0,0,0,No
11,0,11,0,1,2,0,0,0,0,0,0,0,588,0,No
9,0,9,0,1,2,0,0,0,0,0,0,0,588,0,No
2,0,2,0,1,2,0,0,0,0,0,0,0,588,0,No
7,4,7,0,1,3,0,0,0,0,0,0,0,935,0,No
13,7,13,0,1,3,0,0,0,0,0,0,0,935,0,No
2,1,2,0,0,4,0,0,0,0,0,0,0,1908,0,No
5,1,5,0,0,4,0,0,0,0,0,0,0,930,0,No
7,3,7,0,3,3,0,0,0,0,0,0,0,931,0,No
15,7,15,30,3,4,27,24,24,24,4,16,27,934,0,No
10,8,10,0,0,3,0,0,0,0,0,0,0,934,0,No
18,8,18,8,3,4,6,6,4,4,3,15,23,936,0,No
5,3,5,0,0,3,0,0,0,0,0,0,0,930,0,No
6,1,6,0,0,4,0,0,0,0,0,0,0,930,0,No
18,13,18,29,4,5,26,23,23,23,4,16,27,931,0,No
7,2,7,0,1,7,0,0,0,0,0,0,0,1908,0,No
18,10,18,8,3,6,6,6,4,4,3,15,23,936,0,No
4,2,4,0,1,4,0,0,0,0,0,0,0,935,0,No
6,0,8,0,0,7,0,0,0,0,0,0,0,1875,0,No
10,1,14,0,0,4,0,0,0,0,0,0,0,1746,0,No
8,2,8,0,0,4,0,0,0,0,0,0,0,1908,0,No
2,1,2,0,0,4,0,0,0,0,0,0,0,1908,0,No
3,0,7,0,0,5,0,0,0,0,0,0,0,1908,0,No
15,2,15,0,0,5,0,0,0,0,0,0,0,1469,0,No
9,1,11,0,0,2,0,0,0,0,0,0,0,732,0,No
9,1,13,0,0,6,0,0,0,0,0,0,0,1746,0,No
3,2,3,0,0,4,0,0,0,0,0,0,0,1908,0,No
5,1,5,0,0,5,0,0,0,0,0,0,0,1908,0,No
0,0,0,0,0,1,0,0,0,0,0,0,0,570,0,No
11,2,11,0,0,4,0,0,0,0,0,0,0,1846,0,No
19,3,21,0,0,7,0,0,0,0,0,0,0,1848,0,No
2,0,3,0,1,6,0,0,0,0,0,0,0,1284,0,No
10,1,10,0,0,1,0,0,0,0,0,0,0,608,0,No
2,0,2,0,0,4,0,0,0,0,0,0,0,1865,0,No
7,2,8,0,2,2,0,0,0,0,0,0,0,629,0,No
4,2,4,0,0,4,0,0,0,0,0,0,0,1908,0,No
16,3,16,0,0,6,0,0,0,0,0,0,0,1853,0,No
4,0,4,0,0,5,0,0,0,0,0,0,0,1908,0,No
26,3,26,0,0,7,0,0,0,0,0,0,0,1365,0,No
13,1,13,0,0,6,0,0,0,0,0,0,0,1358,0,No
2,2,2,0,0,4,0,0,0,0,0,0,0,1908,0,No
18,3,18,0,0,4,0,0,0,0,0,0,0,1746,0,No
4,0,4,0,0,2,0,0,0,0,0,0,0,570,0,No
2,0,2,0,0,4,0,0,0,0,0,0,0,1469,0,No
18,2,26,0,0,5,0,0,0,0,0,0,0,1263,0,No
40,3,40,0,1,5,0,0,0,0,0,0,0,1844,0,No
35,0,39,12,2,5,6,6,0,0,1,2,2,1837,0,No
12,0,16,0,0,5,0,0,0,0,0,0,0,1908,0,No
24,2,25,0,0,6,0,0,0,0,0,0,0,1908,0,No
4,1,4,0,0,4,0,0,0,0,0,0,0,1908,0,No
2,2,2,0,0,4,0,0,0,0,0,0,0,1908,0,No
6,0,6,0,0,5,0,0,0,0,0,0,0,1469,0,No
2,0,2,0,0,4,0,0,0,0,0,0,0,1746,0,No
2,0,2,0,0,5,0,0,0,0,0,0,0,1908,0,No
17,2,17,0,0,4,0,0,0,0,0,0,0,1371,0,No
0,1,0,0,0,0,0,0,0,0,0,0,0,0,0,No
18,1,22,0,0,5,0,0,0,0,0,0,0,1869,0,No
0,0,0,0,0,5,0,0,0,0,0,0,0,1869,0,No
7,4,10,0,2,3,0,0,0,0,0,0,0,1222,0,No
2,0,2,0,0,6,0,0,0,0,0,0,0,1869,0,No
1,0,1,0,0,4,0,0,0,0,0,0,0,1869,0,No
0,0,0,0,0,5,0,0,0,0,0,0,0,1869,0,No
2,0,2,0,2,3,0,0,0,0,0,0,0,1195,0,No
0,0,0,6,0,5,3,3,0,0,2,8,14,1869,0,No
0,0,0,7,0,5,4,4,1,1,2,8,14,1869,0,No
2,0,2,0,0,4,0,0,0,0,0,0,0,1869,0,No
1,0,1,0,0,5,0,0,0,0,0,0,0,1869,0,No
0,0,0,0,1,3,0,0,0,0,0,0,0,889,0,No
46,1,50,0,0,7,0,0,0,0,0,0,0,1438,0,No
0,0,0,0,0,4,0,0,0,0,0,0,0,1869,0,No
0,0,0,0,0,5,0,0,0,0,0,0,0,1469,0,No
0,0,0,0,0,4,0,0,0,0,0,0,0,1869,0,No
0,0,0,0,0,5,0,0,0,0,0,0,0,1869,0,No
0,0,0,0,0,5,0,0,0,0,0,0,0,1869,0,No
0,0,0,0,1,6,0,0,0,0,0,0,0,1869,0,No
1,0,2,0,0,5,0,0,0,0,0,0,0,1869,0,No
8,2,9,0,0,8,0,0,0,0,0,0,0,1869,0,No
0,0,0,0,0,4,0,0,0,0,0,0,0,1869,0,No
0,0,0,0,0,4,0,0,0,0,0,0,0,1469,0,No
2,0,2,0,0,0,0,0,0,0,0,0,0,0,0,No
0,1,0,0,0,4,0,0,0,0,0,0,0,1869,0,No
10,13,71,2,2,7,1,1,0,0,1,2,2,1351,0,No
0,0,0,0,0,1,0,0,0,0,0,0,0,570,0,No
0,0,0,0,0,1,0,0,0,0,0,0,0,570,0,No
0,0,0,0,0,1,0,0,0,0,0,0,0,570,0,No
0,0,0,0,0,1,0,0,0,0,0,0,0,570,0,No
0,0,0,0,0,1,0,0,0,0,0,0,0,570,0,No
0,0,0,0,0,2,0,0,0,0,0,0,0,570,0,No
0,0,0,0,0,1,0,0,0,0,0,0,0,570,0,No
0,0,0,0,0,1,0,0,0,0,0,0,0,570,0,No
0,0,0,0,1,6,0,0,0,0,0,0,0,1869,0,No
0,0,0,0,0,1,0,0,0,0,0,0,0,570,0,No
0,0,0,0,0,1,0,0,0,0,0,0,0,570,0,No
0,1,0,0,0,1,0,0,0,0,0,0,0,570,0,No
14,20,29,0,2,6,0,0,0,0,0,0,0,1869,0,No
22,3,28,0,3,8,0,0,0,0,0,0,0,1869,0,No
1,0,1,0,0,1,0,0,0,0,0,0,0,658,0,No
5,1,14,0,0,2,0,0,0,0,0,0,0,276,0,No
3,0,3,0,0,2,0,0,0,0,0,0,0,1070,0,No
0,0,0,0,0,3,0,0,0,0,0,0,0,801,0,No
0,0,0,0,0,2,0,0,0,0,0,0,0,801,0,No
0,0,0,2,0,4,0,0,-2,0,3,15,23,1869,0,No
6,0,9,0,0,4,0,0,0,0,0,0,0,1250,0,No
2,0,2,0,0,5,0,0,0,0,0,0,0,1469,0,No
0,0,0,0,0,3,0,0,0,0,0,0,0,1869,0,No
1,6,3,0,1,4,0,0,0,0,0,0,0,1538,0,No
2,0,3,0,0,3,0,0,0,0,0,0,0,1908,0,No
2,0,7,0,1,5,0,0,0,0,0,0,0,1588,0,No
3,0,16,0,0,6,0,0,0,0,0,0,0,1697,0,No
5,1,5,0,0,1,0,0,0,0,0,0,0,635,0,No
3,2,3,0,0,4,0,0,0,0,0,0,0,1908,0,No
12,3,12,0,0,4,0,0,0,0,0,0,0,1908,0,No
2,0,6,0,0,1,0,0,0,0,0,0,0,392,0,No
1,0,1,0,1,7,0,0,0,0,0,0,0,1908,0,No
2,0,4,0,0,1,0,0,0,0,0,0,0,907,0,No
2,8,15,0,1,1,0,0,0,0,0,0,0,269,0,No
4,13,4,0,2,6,0,0,0,0,0,0,0,1869,0,No
2,2,2,0,0,5,0,0,0,0,0,0,0,1538,0,No
0,0,0,0,0,2,0,0,0,0,0,0,0,658,0,No
8,8,9,0,1,8,0,0,0,0,0,0,0,1468,0,No
0,0,0,0,0,4,0,0,0,0,0,0,0,1869,0,No
0,1,0,0,1,5,0,0,0,0,0,0,0,1869,0,No
0,0,0,0,1,5,0,0,0,0,0,0,0,1869,0,No
4,2,4,0,0,3,0,0,0,0,0,0,0,867,0,No
3,5,13,0,0,2,0,0,0,0,0,0,0,873,0,No
2,9,5,6,8,6,2,2,-2,0,1,2,6,1263,0,No
0,0,0,0,1,3,0,0,0,0,0,0,0,1869,0,No
0,0,0,0,0,3,0,0,0,0,0,0,0,1469,0,No
0,0,0,0,0,1,0,0,0,0,0,0,0,738,0,No
0,0,0,0,0,3,0,0,0,0,0,0,0,1869,0,No
0,1,0,0,0,5,0,0,0,0,0,0,0,1867,0,No
0,3,0,0,1,6,0,0,0,0,0,0,0,1358,0,No
0,2,0,0,1,4,0,0,0,0,0,0,0,1538,0,No
5,8,8,0,0,2,0,0,0,0,0,0,0,402,0,No
3,3,3,0,0,4,0,0,0,0,0,0,0,1250,0,No
1,3,1,0,0,5,0,0,0,0,0,0,0,1538,0,No
2,2,3,0,0,7,0,0,0,0,0,0,0,1468,0,No
2,5,3,0,1,8,0,0,0,0,0,0,0,1468,0,No
2,6,5,14,1,6,12,12,10,10,1,2,6,1538,0,No
2,3,2,4,1,5,2,2,0,0,1,2,6,1538,0,No
2,1,2,2,1,5,1,1,0,0,1,2,6,1538,0,No
2,3,2,0,0,6,0,0,0,0,0,0,0,1869,0,No
6,10,12,0,0,1,0,0,0,0,0,0,0,402,0,No
0,3,0,0,1,3,0,0,0,0,0,0,0,801,0,No
0,3,0,0,0,6,0,0,0,0,0,0,0,1263,0,No
10,6,10,0,0,1,0,0,0,0,0,0,0,658,0,No
1,0,1,0,0,1,0,0,0,0,0,0,0,658,0,No
2,0,2,0,0,4,0,0,0,0,0,0,0,1869,0,No
11,14,33,0,6,7,0,0,0,0,0,0,0,1453,0,No
3,1,7,0,1,2,0,0,0,0,0,0,0,447,0,No
13,0,13,0,0,0,0,0,0,0,0,0,0,0,0,No
3,5,4,0,2,5,0,0,0,0,0,0,0,1001,0,No
10,1,14,0,2,2,0,0,0,0,0,0,0,629,0,No
0,3,0,0,0,6,0,0,0,0,0,0,0,1263,0,No
1,5,2,4,3,7,1,1,-2,0,1,2,6,1365,0,No
2,2,5,0,0,1,0,0,0,0,0,0,0,392,0,No
1,1,2,0,0,1,0,0,0,0,0,0,0,392,0,No
2,1,2,0,1,1,0,0,0,0,0,0,0,612,0,No
1,1,5,0,0,1,0,0,0,0,0,0,0,612,0,No
3,2,3,0,2,6,0,0,0,0,0,0,0,1368,0,No
2,2,2,0,1,5,0,0,0,0,0,0,0,1665,0,No
5,3,7,0,1,5,0,0,0,0,0,0,0,1908,0,No
7,7,14,0,1,6,0,0,0,0,0,0,0,1817,0,No
2,0,2,0,0,4,0,0,0,0,0,0,0,1869,0,No
8,7,11,0,1,6,0,0,0,0,0,0,0,1817,0,No
5,2,5,0,1,6,0,0,0,0,0,0,0,1358,0,No
14,8,18,25,2,7,24,24,23,23,2,7,14,1250,0,No
8,11,12,0,0,6,0,0,0,0,0,0,0,1838,0,No
17,14,18,12,4,7,9,9,6,6,3,15,23,1838,0,No
21,12,41,0,2,8,0,0,0,0,0,0,0,1908,0,No
5,2,5,0,0,1,0,0,0,0,0,0,0,308,0,No
18,17,19,4,3,8,2,2,0,0,3,15,23,1859,0,No
4,0,4,0,0,1,0,0,0,0,0,0,0,1250,0,No
3,1,5,0,1,2,0,0,0,0,0,0,0,889,0,No
3,1,5,0,1,4,0,0,0,0,0,0,0,1588,0,No
2,0,2,0,1,4,0,0,0,0,0,0,0,1588,0,No
3,2,6,0,0,2,0,0,0,0,0,0,0,867,0,No
1,2,10,0,1,4,0,0,0,0,0,0,0,1355,0,No
0,0,0,0,0,4,0,0,0,0,0,0,0,1869,0,No
0,1,0,0,0,4,0,0,0,0,0,0,0,1869,0,No
3,0,3,0,0,5,0,0,0,0,0,0,0,1358,0,No
1,0,2,0,1,4,0,0,0,0,0,0,0,1869,0,No
1,0,2,0,1,5,0,0,0,0,0,0,0,1358,0,No
1,1,2,0,0,4,0,0,0,0,0,0,0,1358,0,No
1,2,3,0,0,4,0,0,0,0,0,0,0,1358,0,No
1,0,1,0,0,4,0,0,0,0,0,0,0,1869,0,No
32,3,82,0,2,5,0,0,0,0,0,0,0,1277,0,No
8,1,25,0,2,8,0,0,0,0,0,0,0,1817,0,No
2,1,2,0,0,3,0,0,0,0,0,0,0,1627,0,No
3,1,3,0,1,5,0,0,0,0,0,0,0,1425,0,No
2,1,3,0,1,5,0,0,0,0,0,0,0,1817,0,No
1,0,1,0,0,4,0,0,0,0,0,0,0,1869,0,No
6,1,30,0,2,7,0,0,0,0,0,0,0,1425,0,No
20,0,30,0,5,7,0,0,0,0,0,0,0,1425,0,Yes
0,0,0,0,0,3,0,0,0,0,0,0,0,1869,0,No
5,1,9,0,0,1,0,0,0,0,0,0,0,427,0,No
1,0,1,0,2,1,0,0,0,0,0,0,0,899,0,No
1,0,1,0,0,5,0,0,0,0,0,0,0,1869,0,No
1,1,5,0,0,1,0,0,0,0,0,0,0,392,0,No
2,1,2,0,0,1,0,0,0,0,0,0,0,392,0,No
1,0,1,0,0,5,0,0,0,0,0,0,0,1869,0,No
1,0,1,0,0,5,0,0,0,0,0,0,0,1469,0,No
6,4,7,0,0,4,0,0,0,0,0,0,0,1354,0,No
1,1,1,0,0,4,0,0,0,0,0,0,0,1469,0,No
2,0,2,0,0,3,0,0,0,0,0,0,0,860,0,No
2,0,4,0,0,2,0,0,0,0,0,0,0,391,0,No
4,1,4,0,0,5,0,0,0,0,0,0,0,1469,0,No
5,1,14,0,1,2,0,0,0,0,0,0,0,894,0,No
4,1,4,0,0,1,0,0,0,0,0,0,0,217,0,No
6,1,6,0,1,3,0,0,0,0,0,0,0,894,0,No
7,0,8,0,0,4,0,0,0,0,0,0,0,1908,0,No
3,2,13,0,0,1,0,0,0,0,0,0,0,608,0,No
1,5,10,0,1,5,0,0,0,0,0,0,0,1271,0,No
1,2,1,0,1,6,0,0,0,0,0,0,0,1524,0,No
2,1,2,0,1,5,0,0,0,0,0,0,0,1469,0,No
1,2,2,0,0,2,0,0,0,0,0,0,0,732,0,No
11,3,16,0,0,6,0,0,0,0,0,0,0,1862,0,No
4,1,4,0,2,3,0,0,0,0,0,0,0,1908,0,No
2,0,2,0,0,3,0,0,0,0,0,0,0,1869,0,No
20,7,74,0,3,5,0,0,0,0,0,0,0,1897,0,No
19,0,37,0,1,4,0,0,0,0,0,0,0,1862,0,No
5,1,5,0,2,6,0,0,0,0,0,0,0,1882,0,No
8,0,13,0,0,5,0,0,0,0,0,0,0,1263,0,No
17,2,24,0,0,5,0,0,0,0,0,0,0,1853,0,No
2,0,2,0,2,5,0,0,0,0,0,0,0,1895,0,No
6,0,8,0,0,1,0,0,0,0,0,0,0,403,0,No
16,3,16,0,0,7,0,0,0,0,0,0,0,1469,0,No
8,0,11,0,0,5,0,0,0,0,0,0,0,1543,0,No
5,1,7,3,1,5,1,1,-1,0,1,2,2,1862,0,No
25,4,33,0,0,5,0,0,0,0,0,0,0,1873,0,No
10,0,10,0,0,1,0,0,0,0,0,0,0,608,0,No
4,0,4,0,0,4,0,0,0,0,0,0,0,1897,0,No
41,7,47,0,0,6,0,0,0,0,0,0,0,1853,0,No
31,3,39,0,2,6,0,0,0,0,0,0,0,1365,0,No
16,1,17,0,0,5,0,0,0,0,0,0,0,1358,0,No
0,1,0,0,0,4,0,0,0,0,0,0,0,1862,0,No
6,4,6,0,2,5,0,0,0,0,0,0,0,1438,0,No
18,5,19,0,0,5,0,0,0,0,0,0,0,1746,0,No
0,1,0,0,0,5,0,0,0,0,0,0,0,1862,0,No
4,1,4,0,0,4,0,0,0,0,0,0,0,1869,0,No
6,1,8,0,0,4,0,0,0,0,0,0,0,1263,0,No
5,2,7,0,0,4,0,0,0,0,0,0,0,1263,0,No
8,1,8,0,0,5,0,0,0,0,0,0,0,1469,0,No
3,0,3,0,0,4,0,0,0,0,0,0,0,1862,0,No
0,1,0,0,0,5,0,0,0,0,0,0,0,1862,0,No
6,4,8,0,1,7,0,0,0,0,0,0,0,1469,0,No
6,2,6,0,0,4,0,0,0,0,0,0,0,1897,0,No
5,0,10,0,0,4,0,0,0,0,0,0,0,1746,0,No
4,0,4,0,0,3,0,0,0,0,0,0,0,1746,0,No
10,4,14,0,0,5,0,0,0,0,0,0,0,1862,0,No
5,3,7,0,0,5,0,0,0,0,0,0,0,1704,0,No
3,2,4,0,0,5,0,0,0,0,0,0,0,1908,0,No
0,1,0,0,1,4,0,0,0,0,0,0,0,1862,0,No
14,4,18,0,0,1,0,0,0,0,0,0,0,398,0,No
11,4,16,0,0,5,0,0,0,0,0,0,0,1862,0,Yes
5,2,5,0,1,4,0,0,0,0,0,0,0,1862,0,No
5,3,7,0,0,5,0,0,0,0,0,0,0,1704,0,No
3,2,4,0,0,5,0,0,0,0,0,0,0,1908,0,No
5,3,7,0,0,5,0,0,0,0,0,0,0,1862,0,No
4,2,4,0,0,4,0,0,0,0,0,0,0,1862,0,No
0,1,0,0,0,4,0,0,0,0,0,0,0,1862,0,No
0,1,0,0,0,4,0,0,0,0,0,0,0,1862,0,No
5,3,7,0,1,7,0,0,0,0,0,0,0,1862,0,No
4,2,4,0,0,4,0,0,0,0,0,0,0,1862,0,No
0,1,0,0,0,4,0,0,0,0,0,0,0,1862,0,No
18,6,43,0,0,6,0,0,0,0,0,0,0,1832,0,No
0,0,0,0,0,3,0,0,0,0,0,0,0,1869,0,No
11,4,16,0,0,5,0,0,0,0,0,0,0,1862,0,Yes
5,1,5,0,1,5,0,0,0,0,0,0,0,1908,0,No
5,3,7,0,0,5,0,0,0,0,0,0,0,1704,0,No
3,2,4,0,0,5,0,0,0,0,0,0,0,1908,0,No
5,3,7,0,0,5,0,0,0,0,0,0,0,1862,0,No
4,1,4,0,0,5,0,0,0,0,0,0,0,1908,0,No
0,1,0,0,0,4,0,0,0,0,0,0,0,1862,0,No
3,2,5,0,0,5,0,0,0,0,0,0,0,1908,0,No
0,1,0,0,0,4,0,0,0,0,0,0,0,1862,0,No
5,3,7,0,0,6,0,0,0,0,0,0,0,1862,0,No
4,1,4,0,0,5,0,0,0,0,0,0,0,1908,0,No
0,1,0,0,0,4,0,0,0,0,0,0,0,1862,0,No
51,18,95,0,1,5,0,0,0,0,0,0,0,1862,0,No
10,4,14,0,0,5,0,0,0,0,0,0,0,1862,0,Yes
5,3,7,0,0,5,0,0,0,0,0,0,0,1704,0,No
3,2,4,0,0,5,0,0,0,0,0,0,0,1908,0,No
4,3,5,0,0,5,0,0,0,0,0,0,0,1862,0,No
0,1,0,0,1,4,0,0,0,0,0,0,0,1862,0,No
3,2,5,0,0,5,0,0,0,0,0,0,0,1908,0,No
0,1,0,0,1,4,0,0,0,0,0,0,0,1862,0,No
4,3,5,0,0,6,0,0,0,0,0,0,0,1862,0,No
0,1,0,0,1,4,0,0,0,0,0,0,0,1862,0,No
3,1,3,0,0,4,0,0,0,0,0,0,0,1908,0,No
4,2,4,0,0,4,0,0,0,0,0,0,0,1908,0,No
5,2,5,0,0,4,0,0,0,0,0,0,0,1908,0,No
5,2,5,0,0,4,0,0,0,0,0,0,0,1908,0,No
4,2,4,0,0,4,0,0,0,0,0,0,0,1908,0,No
2,1,2,0,0,5,0,0,0,0,0,0,0,1869,0,No
4,1,4,0,0,3,0,0,0,0,0,0,0,1869,0,No
5,2,5,0,0,4,0,0,0,0,0,0,0,1908,0,No
5,4,5,0,0,4,0,0,0,0,0,0,0,1908,0,No
6,3,6,0,0,4,0,0,0,0,0,0,0,1908,0,No
5,3,5,0,0,4,0,0,0,0,0,0,0,1908,0,No
5,4,5,0,0,4,0,0,0,0,0,0,0,1908,0,No
0,0,0,0,0,5,0,0,0,0,0,0,0,1869,0,No
4,2,4,0,0,4,0,0,0,0,0,0,0,1469,0,No
9,6,9,0,1,5,0,0,0,0,0,0,0,1869,0,No
7,3,7,0,1,4,0,0,0,0,0,0,0,1908,0,No
7,3,7,0,0,4,0,0,0,0,0,0,0,1908,0,No
8,6,8,0,0,4,0,0,0,0,0,0,0,1908,0,No
22,9,22,0,1,6,0,0,0,0,0,0,0,1908,0,No
5,4,5,0,0,4,0,0,0,0,0,0,0,1908,0,No
4,2,4,0,0,4,0,0,0,0,0,0,0,1908,0,No
4,4,4,0,0,6,0,0,0,0,0,0,0,1908,0,No
5,4,5,0,1,6,0,0,0,0,0,0,0,1908,0,No
10,4,10,0,1,4,0,0,0,0,0,0,0,1908,0,No
8,3,8,0,0,4,0,0,0,0,0,0,0,1908,0,No
15,6,15,0,1,6,0,0,0,0,0,0,0,1908,0,No
5,2,5,0,0,4,0,0,0,0,0,0,0,1908,0,No
5,4,5,0,0,4,0,0,0,0,0,0,0,1908,0,No
3,2,5,0,0,4,0,0,0,0,0,0,0,1897,0,No
4,3,6,0,0,1,0,0,0,0,0,0,0,655,0,No
5,2,7,0,0,4,0,0,0,0,0,0,0,1897,0,Yes
5,8,11,0,1,4,0,0,0,0,0,0,0,1897,0,No
4,6,9,0,0,5,0,0,0,0,0,0,0,1897,0,No
5,2,7,0,0,4,0,0,0,0,0,0,0,1897,0,No
5,10,11,0,0,4,0,0,0,0,0,0,0,1897,0,No
6,5,9,0,0,4,0,0,0,0,0,0,0,1897,0,No
5,4,8,0,0,4,0,0,0,0,0,0,0,1271,0,No
5,5,7,0,0,5,0,0,0,0,0,0,0,1832,0,No
4,3,4,0,0,4,0,0,0,0,0,0,0,1365,0,No
1,0,6,0,2,6,0,0,0,0,0,0,0,1908,0,No
9,9,27,0,0,5,0,0,0,0,0,0,0,1438,0,No
7,4,10,0,2,4,0,0,0,0,0,0,0,1263,0,No
8,4,12,0,0,4,0,0,0,0,0,0,0,1263,0,No
9,19,33,0,0,7,0,0,0,0,0,0,0,1853,0,No
30,36,89,0,2,7,0,0,0,0,0,0,0,1897,0,No
5,12,13,0,0,4,0,0,0,0,0,0,0,1897,0,No
4,5,6,0,0,1,0,0,0,0,0,0,0,311,0,No
11,8,22,0,2,5,0,0,0,0,0,0,0,1897,0,No
9,7,14,0,0,4,0,0,0,0,0,0,0,1897,0,No
18,18,25,0,3,10,0,0,0,0,0,0,0,1652,0,No
5,2,7,0,0,4,0,0,0,0,0,0,0,1897,0,No
5,10,11,0,0,4,0,0,0,0,0,0,0,1897,0,No
4,0,4,0,0,1,0,0,0,0,0,0,0,356,0,No
7,0,11,0,0,1,0,0,0,0,0,0,0,356,0,No
3,0,3,0,0,1,0,0,0,0,0,0,0,356,0,No
7,0,8,0,1,1,0,0,0,0,0,0,0,587,0,No
3,0,3,0,0,1,0,0,0,0,0,0,0,356,0,No
0,0,0,0,0,0,0,0,0,0,0,0,0,0,0,No
2,2,2,0,0,4,0,0,0,0,0,0,0,1879,0,No
1,2,2,0,0,5,0,0,0,0,0,0,0,1908,0,No
1,4,6,0,0,6,0,0,0,0,0,0,0,1908,0,No
1,3,2,0,1,5,0,0,0,0,0,0,0,1879,0,No
0,1,0,0,0,5,0,0,0,0,0,0,0,1908,0,No
0,0,0,0,0,3,0,0,0,0,0,0,0,1908,0,No
1,1,1,0,0,3,0,0,0,0,0,0,0,1879,0,No
0,0,0,0,0,4,0,0,0,0,0,0,0,1704,0,No
2,1,2,0,3,4,0,0,0,0,0,0,0,1908,0,No
0,0,0,0,0,4,0,0,0,0,0,0,0,1704,0,No
0,0,0,0,0,4,0,0,0,0,0,0,0,1704,0,No
0,0,0,0,0,4,0,0,0,0,0,0,0,1704,0,No
1,1,2,0,0,4,0,0,0,0,0,0,0,1704,0,No
0,0,0,0,0,4,0,0,0,0,0,0,0,1704,0,No
4,1,7,0,2,5,0,0,0,0,0,0,0,1704,0,No
0,0,0,0,0,4,0,0,0,0,0,0,0,1469,0,No
1,3,5,0,2,5,0,0,0,0,0,0,0,1365,0,No
0,0,0,0,0,4,0,0,0,0,0,0,0,1704,0,No
0,0,0,0,0,4,0,0,0,0,0,0,0,1469,0,No
0,0,0,0,0,4,0,0,0,0,0,0,0,1469,0,No
0,0,0,0,0,4,0,0,0,0,0,0,0,1469,0,No
0,0,0,0,0,4,0,0,0,0,0,0,0,1704,0,No
0,0,0,0,1,4,0,0,0,0,0,0,0,1704,0,No
2,15,18,0,1,1,0,0,0,0,0,0,0,675,0,No
1,3,8,0,2,5,0,0,0,0,0,0,0,1704,0,No
0,0,0,0,0,4,0,0,0,0,0,0,0,1704,0,No
1,2,3,0,2,3,0,0,0,0,0,0,0,1005,0,No
0,0,0,0,0,5,0,0,0,0,0,0,0,1704,0,No
3,14,24,0,2,8,0,0,0,0,0,0,0,1375,0,Yes
1,3,24,0,2,7,0,0,0,0,0,0,0,1368,0,No
0,0,0,0,0,4,0,0,0,0,0,0,0,1869,0,No
12,3,61,0,0,8,0,0,0,0,0,0,0,1425,0,No
0,0,0,0,0,4,0,0,0,0,0,0,0,1869,0,No
0,0,0,0,0,5,0,0,0,0,0,0,0,1869,0,No
1,1,1,0,1,6,0,0,0,0,0,0,0,1368,0,No
18,4,18,0,0,4,0,0,0,0,0,0,0,921,0,No
4,3,4,0,0,4,0,0,0,0,0,0,0,952,0,No
2,2,2,0,0,5,0,0,0,0,0,0,0,1869,0,No
17,1,44,0,1,5,0,0,0,0,0,0,0,1823,0,No
1,0,1,0,1,4,0,0,0,0,0,0,0,1908,0,No
3,3,3,0,0,4,0,0,0,0,0,0,0,1260,0,No
4,2,4,0,2,2,0,0,0,0,0,0,0,1008,0,No
0,0,0,0,0,6,0,0,0,0,0,0,0,1869,0,No
4,5,10,0,0,5,0,0,0,0,0,0,0,986,0,No
2,7,11,0,4,4,0,0,0,0,0,0,0,964,0,No
0,0,0,0,0,3,0,0,0,0,0,0,0,1869,0,No
1,0,1,0,1,3,0,0,0,0,0,0,0,1869,0,No
1,0,1,4,1,4,2,2,0,0,2,8,14,1869,0,No
0,0,0,0,0,3,0,0,0,0,0,0,0,1869,0,No
4,1,5,0,1,4,0,0,0,0,0,0,0,1469,0,No
0,0,0,0,0,4,0,0,0,0,0,0,0,1469,0,No
2,1,2,0,0,5,0,0,0,0,0,0,0,1263,0,No
0,1,0,0,0,4,0,0,0,0,0,0,0,1469,0,No
2,2,11,0,1,3,0,0,0,0,0,0,0,1238,0,No
10,0,10,0,0,1,0,0,0,0,0,0,0,634,0,No
1,0,4,0,0,0,0,0,0,0,0,0,0,0,0,No
2,1,4,0,1,5,0,0,0,0,0,0,0,1908,0,No
6,1,6,0,0,5,0,0,0,0,0,0,0,1908,0,No
7,4,7,5,0,7,3,3,1,1,3,15,23,1869,0,No
3,4,4,0,0,4,0,0,0,0,0,0,0,1687,0,No
0,0,0,0,0,7,0,0,0,0,0,0,0,1908,0,No
1,0,1,0,0,4,0,0,0,0,0,0,0,1908,0,No
0,0,0,0,1,2,0,0,0,0,0,0,0,629,0,No
7,11,10,0,0,2,0,0,0,0,0,0,0,734,0,No
11,6,12,0,2,6,0,0,0,0,0,0,0,1358,0,No
2,2,2,0,0,4,0,0,0,0,0,0,0,1869,0,No
3,11,5,0,0,4,0,0,0,0,0,0,0,1833,0,No
5,11,36,0,0,6,0,0,0,0,0,0,0,1848,0,No
2,2,2,0,0,5,0,0,0,0,0,0,0,1869,0,No
3,3,3,0,1,5,0,0,0,0,0,0,0,1365,0,No
4,18,38,0,3,5,0,0,0,0,0,0,0,1424,0,No
13,24,57,0,4,6,0,0,0,0,0,0,0,1846,0,No
12,14,20,0,3,5,0,0,0,0,0,0,0,1860,0,No
1,2,1,0,0,0,0,0,0,0,0,0,0,0,0,No
5,10,29,0,0,1,0,0,0,0,0,0,0,398,0,No
3,3,3,0,0,1,0,0,0,0,0,0,0,311,0,No
7,0,9,0,0,4,0,0,0,0,0,0,0,1875,0,No
2,2,4,0,0,4,0,0,0,0,0,0,0,1057,0,No
1,8,10,0,2,4,0,0,0,0,0,0,0,1684,0,No
1,1,4,0,0,1,0,0,0,0,0,0,0,602,0,No
8,7,8,0,1,4,0,0,0,0,0,0,0,920,0,No
13,10,15,0,1,5,0,0,0,0,0,0,0,919,0,No
2,4,2,0,0,5,0,0,0,0,0,0,0,1908,0,No
5,4,5,0,1,3,0,0,0,0,0,0,0,914,0,No
7,10,19,0,2,4,0,0,0,0,0,0,0,915,0,No
16,13,17,50,3,4,31,27,12,12,4,16,27,914,0,No
18,14,32,24,5,4,14,14,4,4,3,15,23,913,0,Yes
5,6,5,0,0,4,0,0,0,0,0,0,0,916,0,No
6,4,6,0,1,3,0,0,0,0,0,0,0,914,0,No
18,21,23,20,3,6,16,12,12,12,4,16,27,909,0,No
7,7,10,0,1,4,0,0,0,0,0,0,0,914,0,No
18,17,32,24,5,6,14,14,4,4,3,15,23,910,0,No
6,4,6,0,1,7,0,0,0,0,0,0,0,1908,0,No
6,5,16,0,1,3,0,0,0,0,0,0,0,907,0,No
0,0,0,0,1,3,0,0,0,0,0,0,0,1869,0,No
9,3,9,0,0,7,0,0,0,0,0,0,0,1344,0,No
1,1,1,0,1,6,0,0,0,0,0,0,0,1869,0,No
10,3,10,0,0,2,0,0,0,0,0,0,0,396,0,No
15,3,20,0,0,6,0,0,0,0,0,0,0,1361,0,No
4,14,4,0,0,2,0,0,0,0,0,0,0,566,0,No
7,28,29,0,3,5,0,0,0,0,0,0,0,945,0,No
11,12,16,4,1,4,2,2,0,0,3,15,23,396,0,No
11,12,16,0,0,2,0,0,0,0,0,0,0,396,0,No
3,0,3,0,0,3,0,0,0,0,0,0,0,1908,0,No
1,0,16,0,0,1,0,0,0,0,0,0,0,390,0,No
13,1,16,0,2,1,0,0,0,0,0,0,0,879,0,Yes
1,0,2,0,0,4,0,0,0,0,0,0,0,1908,0,No
0,0,0,0,0,5,0,0,0,0,0,0,0,1869,0,No
2,0,4,0,1,2,0,0,0,0,0,0,0,390,0,No
8,0,10,0,0,1,0,0,0,0,0,0,0,357,0,No
1,0,9,0,1,2,0,0,0,0,0,0,0,390,0,No
1,1,7,0,1,1,0,0,0,0,0,0,0,271,0,No
1,0,5,0,1,1,0,0,0,0,0,0,0,852,0,No
9,0,10,0,0,2,0,0,0,0,0,0,0,357,0,No
2,0,4,0,0,4,0,0,0,0,0,0,0,1908,0,No
2,0,2,0,0,5,0,0,0,0,0,0,0,1869,0,No
14,0,18,0,1,5,0,0,0,0,0,0,0,1292,0,No
9,3,9,0,2,5,0,0,0,0,0,0,0,986,0,No
0,0,0,0,1,6,0,0,0,0,0,0,0,1869,0,No
0,1,0,0,1,5,0,0,0,0,0,0,0,1469,0,No
3,0,3,0,1,6,0,0,0,0,0,0,0,1869,0,No
8,1,8,0,2,4,0,0,0,0,0,0,0,1358,0,No
0,0,0,0,0,3,0,0,0,0,0,0,0,1869,0,No
5,9,5,0,0,4,0,0,0,0,0,0,0,986,0,No
12,11,12,0,1,4,0,0,0,0,0,0,0,986,0,No
4,7,4,0,0,3,0,0,0,0,0,0,0,986,0,No
19,9,19,0,1,9,0,0,0,0,0,0,0,1376,0,Yes
18,13,25,0,6,8,0,0,0,0,0,0,0,1393,0,Yes
1,1,1,0,0,3,0,0,0,0,0,0,0,1469,0,No
1,0,1,0,0,3,0,0,0,0,0,0,0,1469,0,No
4,0,4,0,0,3,0,0,0,0,0,0,0,1469,0,No
1,1,1,0,1,4,0,0,0,0,0,0,0,1469,0,No
1,2,2,0,1,4,0,0,0,0,0,0,0,1382,0,No
1,3,1,0,0,3,0,0,0,0,0,0,0,1382,0,No
1,5,2,0,0,5,0,0,0,0,0,0,0,1382,0,No
1,3,2,0,0,3,0,0,0,0,0,0,0,1382,0,Yes
1,5,3,11,1,5,7,7,3,3,2,8,13,1382,0,Yes
3,0,3,0,1,1,0,0,0,0,0,0,0,391,0,No
1,0,2,0,0,1,0,0,0,0,0,0,0,391,0,No
